Global Parameters
ISTART =  1            (Read existing wavefunction, if there)
ISPIN  =  1            (Non-Spin polarised DFT)
# ICHARG =  11         (Non-self-consistent: GGA/LDA band structures)
LREAL  = Auto       (Projection operators: automatic)
ENCUT  =  650        (Cut-off energy for plane wave basis set, in eV)
PREC   =  Accurate   (Precision level: Normal or Accurate, set Accurate when perform structure lattice relaxation calculation)
LWAVE  = .FALSE.        (Write WAVECAR or not)
LCHARG = .FALSE.        (Write CHGCAR or not)
ADDGRID= .TRUE.        (Increase grid, helps GGA convergence)
EDIFF = 1E-06
KPAR   = 4           (Divides k-grid into separate groups)
NPAR   = 2           (Divides k-grid into separate groups)
 
Lattice Relaxation
NSW    =  5          (number of ionic steps)
ISMEAR =  1            (gaussian smearing method )
SIGMA  =  0.1         (please check the width of the smearing)
IBRION =  0            (Algorithm: 0-MD, 1-Quasi-New, 2-CG)
ISIF   =  2            (optimize atomic coordinates and lattice parameters)
KSPACING = 0.5
TEBEG = 300
TEEND = 300
POTIM = 2.0
ISYM = 0
SMASS = 0
MDALGO = 2
IWAVPR = 11
