Created from POSCAR
1.0
 9.9016920000000006  0.0000000000000000  0.0000000000000000
 0.0000000000000000 10.0040760000000013  0.0000000000000000
 0.0000000000000000  0.0000000000000000 19.1980260000000023
Si
128
Direct
 0.1235593482122026  0.3756287062992231  0.0626669995867923
 0.5007699449050687  0.7498742365309800  0.9992647387905368
 0.5017912457426140  0.2504574436929044  0.7497542268654325
 0.5005028004601252  0.2489886103520299  0.4999689166639462
 0.9999152490615310  0.7509505766876726  0.7505361068105431
 0.0011947690709781  0.7491120194452261  1.0001307475999821
 0.0011322920458130  0.2507943644320419  0.7483801670160266
 0.0006676816555579  0.2513655355998976  0.5001023980498253
 0.6238794030690965  0.6247304427544804  0.9369867582696910
 0.6241299188235397  0.6239324593597171  0.6880359319738152
 0.6265536277830088  0.1252797309354456  0.9368221462317889
 0.6252725202649946  0.1250362759250436  0.6882176205773932
 0.1255917922318153  0.6253350114584456  0.9379210385173812
 0.1256291704578471  0.6245817984998293  0.6882618341999714
 0.1232367735950124  0.3763162918631490  0.8125231173581665
 0.1231984285493315  0.1230311325871547  0.9372584141516394
 0.5001504075496364  0.4988906488380861  0.8748762106854346
 0.5014228993177912  0.5009977590925572  0.6244023665115039
 0.5000037736153438  0.9985323536595964  0.8748351982890917
 0.4994058330846251 -0.0000810706420738  0.6257287562797255
 0.0003444839951152  0.5021970038831849  0.8753243509079198
 0.0020913293767420  0.5003046561132052  0.6256249671824066
 0.9984337710634750  0.9991003925307765  0.8755226973145275
 0.9990337193961165  0.9999267378189141  0.6251553258889812
 0.6258715814923477  0.8754587899249735  0.8116078193717847
 0.6263161430250931  0.8742685426791671  0.5619734592866584
 0.6228772011967719  0.3746220903703734  0.8124856639805720
 0.6245421237657234  0.3757485531863130  0.5620009249481783
 0.1251806803984304  0.8743472477304750  0.8134684657343998
 0.1251636858643827  0.1255973268295200  0.6877022813343706
 0.1233129886450022  0.8729150452195837  0.5627337701153112
 0.5000169448676164  0.7490235174369924  0.7502056541795786
 0.7513630661618015  0.5009120261846488  0.7510633179199295
 0.7508689057760776  0.2509640356602234  0.8750457311807242
 0.7482934444886710  0.2514527054182578  0.6254389121652256
 0.2476012500194852  0.7490397417480650  0.8743414738895445
 0.2484857248306671  0.7487897595514765  0.6248936347993080
 0.2517098066669575  0.2482982667894555  0.8750682889887832
 0.2513798434761259  0.2480441052548295  0.6250949446122106
 0.8757702772812889  0.6255016225291360  0.8128162596001880
 0.8742591930697273  0.6227636813676585  0.5619120496836867
 0.8745096426235595  0.1239426618648903  0.8128931039802924
 0.8753956094431918  0.1258735886699948  0.5622094914849831
 0.3737761752972730  0.6236173958639957  0.8124813513825921
 0.3748770550360071  0.6261077887465238  0.5616494489468168
 0.3753211513665179  0.1241340669194179  0.8135760055248308
 0.3742314423340615  0.3758523140983763  0.9382272749597155
 0.3753263216881803  0.3744163857358874  0.6883528471380211
 0.7483591668143991  0.4981650125393026  0.5005257825002400
 0.7481167176913244  0.0021457872291276  0.7497355845606496
 0.7522974068116502  0.9989220591795270  0.5009790150068213
 0.2491820712729136  0.5007495264543613  0.7510020758783322
 0.2495700760580923  0.4998325732957806  0.5011238259834456
 0.2522708437286605  1.0002605664871500  0.7510531415795407
 0.2518790460376784  0.0013072344385065  0.5008697207638226
 0.8761004585875108  0.8739696122797830  0.9373309824930149
 0.8750598607650611  0.8752338770901067  0.6872965296000635
 0.8745597703791672  0.3729319870985106  0.9372927176322335
 0.8759141958343312  0.3768950364693428  0.6875031450259697
 0.3741770466633720  0.8747464426853103  0.9379632860131896
 0.3739436661574168  0.8730437142551666  0.6868793320590583
 0.3738423958435692  0.1251757337112686  0.5622191895693347
 0.1237789432961574  0.3751702310809251  0.5626833952781802
 0.7493581705603467  0.7502109169290568  0.3749319640425854
 0.7508808564777477  0.7518832913606516  0.1251277998590683
 0.9986456903891112  0.7513386832492988  0.2503194110040022
 0.0024270519322732  0.7477912892000705  0.4994108003722337
 0.0004509051963903  0.2482075391205044  0.2489779585255028
 0.0004897103239231  0.2519670094711061  0.0007702233966383
 0.6248706306803011  0.6255403983584498  0.4363060776467204
 0.6241826273568846  0.6235537350731318  0.1883639234472645
 0.6260363860690089  0.1256732007014709  0.4374353210101288
 0.6243822445069691  0.1250011487955729  0.1878451063785058
 0.1249175936914657  0.6249653369794532  0.4376521740538079
 0.1260471939685261  0.6246386564941714  0.1887753074678558
 0.1247527009881425  0.1243364296565350  0.4368536434923139
 0.1246297875104073  0.1252628010751436  0.1870234906655950
 0.5009662541729474  0.2499412628691541  0.2500638978423658
 0.4995251751221972  0.4993414959109483  0.3749287082563300
 0.5000035114066363  0.9978273683626937  0.3752893448449491
 0.5002522003224599  0.0004462857227221  0.1261810044559901
 0.0015664386072796  0.5018489837477864  0.3748899508442606
 0.0020155386914902  0.4996852816896583  0.1252176492256972
 0.9994023157929971  1.0004883075496647  0.3753073802809571
 0.9992744763798165  0.9988308892315961  0.1255046613434143
 0.6257322118516138  0.8744213196142880  0.3113738742353687
 0.6264981503665855  0.8744480269534065  0.0614611148995556
 0.6225493502314844  0.3740459123988815  0.3128314797656715
 0.6253978181383689  0.3748677538271386  0.0621532875900225
 0.1256954655474220  0.8739283107185749  0.3126445073538707
 0.1235823746628808  0.8739439911545186  0.0631752193275212
 0.1239012195653240  0.3763763161442281  0.3123489306134907
 0.5016930499354989  0.5011944361344812  0.1248151975577576
 0.5014052577976565  0.7493921819937657  0.4988156648390899
 0.4997303913454100  0.2497790467746402  1.0002750621189014
 0.5009097017384254  0.7483809541512451  0.2501475859303272
 0.7503227775748065  0.2499390425752931  0.3739298990892932
 0.7519546206633190  0.5010925082972950  0.2513982190866001
 0.7483574555469403  0.2513261493836469  0.1257278239605611
 0.2476140008723990  0.7494364752784130  0.3745641957838529
 0.2481754849687785  0.7478796869021092  0.1247971843708252
 0.2522977621872635  0.2490707859542359  0.3752479045008716
 0.2514397830355585  0.2506332553184487  0.1254730900614551
 0.8749050047164374  0.6262669841458328  0.3131666100856028
 0.8746276154525073  0.6220214768880555  0.0620779826068404
 0.8748510177233599  0.1257848600868659  0.3126843754790782
 0.8753416524804594  0.1264713851887615  0.0622677343359097
 0.3739051771590640  0.6234385304463027  0.3126444392357409
 0.3753867153623311  0.6249816077680932  0.0622948352007127
 0.3750061012308464  0.1243985458887309  0.3127998534346853
 0.3744416746561335  0.1236980570878655  0.0618593791400054
 0.7498799314891441  0.4979439333668085  0.0002742775542064
 0.3749725679846400  0.3737741896183128  0.1887051585824710
 0.7497067552133211  0.0017147170693761  0.2493582816512076
 0.7523080037557724  0.9986656953100120  0.0010546990043846
 0.2491611837755844  0.5006858097905897  0.2509713089285533
 0.2493249419720339  0.4999921421625027  0.0012597220640035
 0.2509548347477916  0.9998305153708669  0.2507281985272590
 0.2513114193998088  0.0017821286704818  0.0010122411941747
 0.8758908332039920  0.8726632866775648  0.4379601261150862
 0.8754064421833034  0.8765418412923837  0.1879335285886116
 0.8737870480911860  0.3731904966136157  0.4377093527452075
 0.8753828294273841  0.3758007186079926  0.1877924359268442
 0.3746602218551709  0.8759827314192040  0.4380451976032293
 0.3754972101224832  0.8735644041271508  0.1870228127520379
 0.3741888458646298  0.3753294153686526  0.4378852116383249
 0.7521994499943732  0.7523285328535666  0.6251093426792932
 0.7486628447040000  0.7512684069770920  0.8738920515657178
