Created from POSCAR
1.0
10.4517860000000002  0.0000000000000000  0.0000000000000000
 0.0000000000000000 10.5598580000000002  0.0000000000000000
 0.0000000000000000  0.0000000000000000 20.2645830000000018
Si
128
Direct
 0.1235753998632216  0.3746197993002983  0.0629163161394067
 0.1241545101534256  0.3763582175556289  0.3126171836259655
 0.1222307625650763  0.8738410370740668  0.0631225109265334
 0.1253021137425237  0.8745905019661565  0.3127449193967197
 0.6248029669685160  0.3755738270929022  0.0616204189123372
 0.6227221616048744  0.3740565734835842  0.3124633621929836
 0.6273410497382985  0.8749472641806443  0.0618577889265972
 0.6253099959148440  0.8744508675871046  0.3119699998233476
 1.0001693495924784  1.0000690540966832  0.1251158708620641
 0.9994467897846817  0.9986397605663964  0.3752997481655559
 0.0021184225468709  0.5009185641898277  0.1254303541020907
 0.0001483676577121  0.5015888869103293  0.3746210529150497
 0.4997090484886708 -0.0000462594860900  0.1254698241720319
 0.5005355990592522  0.9982241636857420  0.3749865053821528
 0.5021211597209682  0.5011810276393448  0.1242229621703946
 0.4996760882277160  0.4991059507359821  0.3755773812310386
 0.1262920905529872  0.1262014632613507  0.1873572292592117
 0.1242273231564900  0.1248353412860602  0.4369692921959274
 0.1263827042919444  0.6244240693265658  0.1883450536562189
 0.1243827658790309  0.6253793128412753  0.4375696624240417
 0.6244818231319240  0.1249373081876077  0.1881121702706323
 0.6263955932133423  0.1250342199508392  0.4371709578662092
 0.6234255363806508  0.6232112406278585  0.1881003200036505
 0.6240371657538520  0.6253408690634443  0.4370566072484014
 0.0004377978676102  0.2503446688739566  0.0003979030941091
 0.0016554073410606  0.2499119798609539  0.2487264429380054
 0.0006394615021263  0.7490271584471050  0.4993692203346140
 0.9986129110553132  0.7511462627569053  0.2506105354021322
 0.5005849450818792  0.2491906261871766  1.0003379232215510
 0.5017956219196378  0.2500453450881223  0.2496094909642409
 0.5012727321247995  0.7499431289603691  0.4989857646038253
 0.5006909790651078  0.7496380975009151  0.2500951962226414
 0.3751314481140535  0.3739026246906651  0.1879928255488317
 0.3757219662644781  0.3753820231107541  0.4378857903468892
 0.3748007311705122  0.8733551202212190  0.1870338381791933
 0.3739677866064047  0.8757457039813851  0.4377019800674788
 0.8748168246566116  0.3756095216606774  0.1873270661226568
 0.8734883359979225  0.3734539627093899  0.4371190051127372
 0.8746036038394128  0.8767886073312168  0.1877798591479880
 0.8753041088049320  0.8735143551531732  0.4380218673758827
 0.2515000443889353  0.0005470873365173  0.0008526707220729
 0.2519589092687620  1.0007016415037147  0.2510217305409554
 0.2483778177827082  0.4995807851969895  0.0008827289585424
 0.2494364319742950  0.5015925952735080  0.2510292103045335
 0.7508232368952269  0.9988559981243148  0.0009995290108985
 0.7484165352850167  0.0011811788998832  0.2491281106672669
 0.7493679532699512  0.4981358854239574  0.0004732852878434
 0.7512686600186976  0.5001158089174013  0.2507358794564882
 0.3736991759786676  0.1244210062486242  0.0617235258001152
 0.3759290724805485  0.1241386101046486  0.3127521114927778
 0.3742668527383607  0.6252573728481772  0.0614134150712572
 0.3726434898558305  0.6230215603427834  0.3127212709081700
 0.8750395745744947  0.1267240429739171  0.0618525829091992
 0.8742942422769887  0.1251929637228894  0.3128258606500728
 0.8751235044568401  0.6221832081947271  0.0622304179385527
 0.8754942509505516  0.6250411735423252  0.3126584285234211
 0.2523757249176910  0.2496519934326114  0.1257647705105534
 0.2519659222745535  0.2496552896265872  0.3749022150004473
 0.2489011533861004  0.7485202321814062  0.1252978751031590
 0.2474683355581605  0.7502969919345261  0.3742905961481994
 0.7486191525644088  0.2512387643410944  0.1259988577341221
 0.7504502734441409  0.2506942712647179  0.3742772206698712
 0.7518234371539892  0.7523040194122328  0.1250663447617053
 0.7495435789108769  0.7507294522027533  0.3744762765503997
 0.1243788413280134  0.3760392190440249  0.5628078478326597
 0.1239864544694998  0.3769998247520996  0.8118808649332808
 0.1241504564707134  0.8732927638861326  0.5627917643007831
 0.1261418321854156  0.8742582562760696  0.8127269349828857
 0.6242037438744706  0.3749549028474053  0.5618053644974978
 0.6232911058538190  0.3730378828900243  0.8123515815476817
 0.6261950648360456  0.8742005568387354  0.5616765325373981
 0.6254883750999309  0.8749183129776441  0.8112467272167911
 0.9997960277192393  0.9985313986591756  0.6247849614126225
 0.9985287505022353  0.9990719090228333  0.8760137971789383
 0.0019814657885034  0.5009585660817327  0.6253806822015517
 0.0012586949889893  0.5021585375199572  0.8748013539584183
 0.4996449613194555  0.0008105273663527  0.6257077931354104
 0.4994715067378122  0.9978478486018018  0.8747576855524105
 0.5019763302717101  0.5014149993815025  0.6241326633646548
 0.4977779304693676  0.4992774467662681  0.8752934629683985
 0.1249987515078288  0.1249083167741864  0.6874102854587840
 0.1241845703094654  0.1242431602173836  0.9375790157802466
 0.1259529280431730  0.6248534251719265  0.6888831820139724
 0.1250547774040077  0.6248853020458872  0.9378625055671391
 0.6243132127819855  0.1247098960240434  0.6883260206425912
 0.6265022213384972  0.1247023685524655  0.9371658506856698
 0.6243748363829046  0.6230941609257064  0.6883017808711652
 0.6246467106851104  0.6255561348855458  0.9364497618710813
 0.0004906892210881  0.2512347785720002  0.5007289777406223
 0.0010278534164852  0.2496363193612655  0.7493064444431906
 0.0021391520041545  0.7482121225503886  0.9996817959609446
 0.9988901729776561  0.7525061981904252  0.7500392474057328
 0.5007026528458453  0.2492007933098606  0.4995646693036938
 0.5014212975544254  0.2496925262635886  0.7500022630369002
 0.5006309478231991  0.7495476895056374  0.9987786045936915
 0.5005197079919125  0.7491414133953194  0.7500908429501290
 0.3745741445414597  0.3726405078672589  0.6887357269941796
 0.3757589435313075  0.3755510900675340  0.9374111902596908
 0.3748998414315241  0.8732323199651836  0.6871334692460800
 0.3745285297761639  0.8764560086441587  0.9382272246694716
 0.8759143814685976  0.3767375177593116  0.6871012988467819
 0.8742906375526600  0.3721969001788938  0.9378076465602704
 0.8747921707689827  0.8765388246773727  0.6874656174449867
 0.8754997299360110  0.8741033650409258  0.9382405470938801
 0.2519928708929249  0.0018775117582286  0.5007062909761273
 0.2514488880162346  0.9991819859337431  0.7510334385986643
 0.2488419491765981  0.5003752243179121  0.5007135488016957
 0.2497239236663644  0.5010870141898859  0.7509081506649888
 0.7517543203577916  0.9980457776198718  0.5011221433917973
 0.7478716725039529  0.0018482778869286  0.7498849320453048
 0.7481446479467897  0.4984584909029378  0.5002279912362146
 0.7509381200861592  0.4996901482212724  0.7509629813620126
 0.3740789991416332  0.1247999506334926  0.5620932405174150
 0.3754189715257553  0.1235546691310718  0.8128428804460480
 0.3743364171785675  0.6253425385850707  0.5621783488945752
 0.3735018692917332  0.6242282339169640  0.8132826833108252
 0.8752513933499314  0.1258370437440230  0.5620815059185923
 0.8757441119187029  0.1252485470575652  0.8131680271798777
 0.8725971970718711  0.6230743988563175  0.5619698765878649
 0.8764473962073067  0.6254136682336060  0.8131058936750792
 0.2507167851390529  0.2492510203518470  0.6251989625521340
 0.2515388427815461  0.2503755356715754  0.8753178773650897
 0.2480939676618928  0.7486675817781880  0.6252673403330339
 0.2483434860390089  0.7485510197237707  0.8745793275091999
 0.7487076989786047  0.2495603832312270  0.6262084853248866
 0.7496969871600151  0.2506837583020899  0.8750298584663043
 0.7517829820099819  0.7513982026011345  0.6251823004823150
 0.7493258671979501  0.7494433387079775  0.8744417966290100
