 convert from PWmat
           1
   11.1447800000000       3.085827000000000E-018  4.036730000000000E-018
 -3.813110000000000E-002   11.1254000000000      -1.236590000000000E-017
 -0.100876000000000       0.118334900000000        11.1173800000000     
 Si 
    64 
 Selective Dynamics
 DIRECT
 0.124030000000000       0.374693000000000       0.126386000000000      T T T
 0.124571000000000       0.375851000000000       0.624937000000000      T T T
 0.123591000000000       0.874112000000000       0.124605000000000      T T T
 0.126125000000000       0.874482000000000       0.626319000000000      T T T
 0.623558000000000       0.375241000000000       0.122539000000000      T T T
 0.624366000000000       0.373559000000000       0.624641000000000      T T T
 0.626047000000000       0.874162000000000       0.123299000000000      T T T
 0.626286000000000       0.875179000000000       0.624468000000000      T T T
 0.999440000000000       0.998290000000000       0.250178000000000      T T T
 0.999911000000000       0.999403000000000       0.751347000000000      T T T
 2.690000000000000E-004  0.500607000000000       0.250892000000000      T T T
 1.430000000000000E-003  0.502322000000000       0.749824000000000      T T T
 0.500436000000000      -1.650000000000000E-004  0.252030000000000      T T T
 0.499010000000000       0.999259000000000       0.751441000000000      T T T
 0.502173000000000       0.500131000000000       0.248677000000000      T T T
 0.498529000000000       0.498408000000000       0.751008000000000      T T T
 0.124803000000000       0.125950000000000       0.374609000000000      T T T
 0.122971000000000       0.123989000000000       0.874638000000000      T T T
 0.125415000000000       0.624670000000000       0.377035000000000      T T T
 0.124397000000000       0.625142000000000       0.875481000000000      T T T
 0.624716000000000       0.123864000000000       0.376850000000000      T T T
 0.627249000000000       0.125357000000000       0.874200000000000      T T T
 0.623552000000000       0.624825000000000       0.376449000000000      T T T
 0.624482000000000       0.625890000000000       0.873351000000000      T T T
 8.420000000000000E-004  0.249950000000000       9.389999999999999E-004 T T T
 1.370000000000000E-003  0.250235000000000       0.497891000000000      T T T
 2.099000000000000E-003  0.747486000000000       0.998459000000000      T T T
 0.998498000000000       0.750216000000000       0.501526000000000      T T T
 0.500991000000000       0.249414000000000       5.980000000000000E-004 T T T
 0.501638000000000       0.250677000000000       0.499771000000000      T T T
 0.500953000000000       0.748367000000000       0.998335000000000      T T T
 0.499115000000000       0.748126000000000       0.499581000000000      T T T
 0.374601000000000       0.372836000000000       0.377218000000000      T T T
 0.374893000000000       0.374992000000000       0.876344000000000      T T T
 0.375992000000000       0.874452000000000       0.374698000000000      T T T
 0.373934000000000       0.874393000000000       0.876011000000000      T T T
 0.875992000000000       0.376680000000000       0.373213000000000      T T T
 0.872596000000000       0.373923000000000       0.876862000000000      T T T
 0.875261000000000       0.875807000000000       0.374792000000000      T T T
 0.876400000000000       0.874705000000000       0.875888000000000      T T T
 0.251859000000000       1.559000000000000E-003  6.920000000000000E-004 T T T
 0.250187000000000       5.120000000000000E-004  0.501560000000000      T T T
 0.249383000000000       0.499983000000000      -7.499999999999999E-005 T T T
 0.250944000000000       0.500979000000000       0.501606000000000      T T T
 0.751582000000000       0.998084000000000       8.250000000000000E-004 T T T
 0.749890000000000       2.400000000000000E-004  0.498737000000000      T T T
 0.749394000000000       0.498508000000000       1.108000000000000E-003 T T T
 0.750912000000000       0.499937000000000       0.499524000000000      T T T
 0.374309000000000       0.125521000000000       0.123643000000000      T T T
 0.374895000000000       0.124021000000000       0.626022000000000      T T T
 0.374283000000000       0.625498000000000       0.123668000000000      T T T
 0.373090000000000       0.625383000000000       0.624196000000000      T T T
 0.876107000000000       0.125845000000000       0.124741000000000      T T T
 0.875234000000000       0.124035000000000       0.625721000000000      T T T
 0.873445000000000       0.623111000000000       0.124226000000000      T T T
 0.873760000000000       0.627039000000000       0.626071000000000      T T T
 0.250529000000000       0.248586000000000       0.249762000000000      T T T
 0.250985000000000       0.250019000000000       0.751519000000000      T T T
 0.247566000000000       0.749548000000000       0.248583000000000      T T T
 0.248753000000000       0.750737000000000       0.749061000000000      T T T
 0.748397000000000       0.250910000000000       0.252663000000000      T T T
 0.750120000000000       0.250631000000000       0.750933000000000      T T T
 0.751506000000000       0.751017000000000       0.249904000000000      T T T
 0.748877000000000       0.750594000000000       0.747965000000000      T T T
