Created from POSCAR
1.0
11.0018799999999999  0.0000000000000000  0.0000000000000000
 0.0000000000000000 11.1156400000000009  0.0000000000000000
 0.0000000000000000  0.0000000000000000 21.3311400000000013
Si
128
Direct
 0.1238252332006967  0.3753261658557008  0.0631381483680239
 0.1242052614778732  0.3766624435863828  0.3126795047208622
 0.1227537063834969  0.8735002300607074  0.0629119605871730
 0.1261846848716195  0.8735442762013860  0.3127637250107448
 0.6244410552897030  0.3757442943898040  0.0615960872748442
 0.6230977490640999  0.3734579982978424  0.3122685913211523
 0.6270104470614561  0.8746441419191286  0.0614384843456754
 0.6260872377241149  0.8746845752765372  0.3115153748104117
 0.9990142113673058  0.9994541761891912  0.1251222892686326
 0.9992903792811776  0.9995593131812096  0.3753811376773645
 0.0013732319462691  0.5007672219145668  0.1254391452981633
 0.0007861045137835  0.5019960302144237  0.3751388324341275
 0.5001472225557539  0.0003006621268920  0.1261781512879732
 0.4985088269625785  0.9986100918251012  0.3752209708035286
 0.5019989055691895  0.5001846242237882  0.1240801249170692
 0.4990894845689123  0.4981838707093919  0.3746776764845411
 0.1257252842798202  0.1257167656742178  0.1878812386448296
 0.1235580826032876  0.1237722256015915  0.4366771926391199
 0.1252918607730490  0.6246507574698732  0.1885284002948471
 0.1246297833025271  0.6250625516029290  0.4381964970863916
 0.6237446602059045  0.1245857694514092  0.1882454551136354
 0.6254316647470362  0.1246176372129518  0.4369589227673296
 0.6235377760099992  0.6240750622478344  0.1880734270399623
 0.6229381739861792  0.6258798787241516  0.4367394542678008
 0.0004344479863159  0.2513608383782255  0.0004950639328292
 0.0020878339253466  0.2501060017590528  0.2487702657018890
 0.0002988495207310  0.7477916410158367  0.5000931643261639
 0.9999104844769925  0.7515333041909429  0.2508599868083622
 0.5009582098343768  0.2498190997557674  0.9995743648378357
 0.5013075419241779  0.2504309151979171  0.2500142056812242
 0.5006912651980100  0.7491492121330654  0.4990081837025117
 0.4999444536952345  0.7496006292775370  0.2500389866216885
 0.3734432530892499  0.3731399111702309  0.1883681024145228
 0.3752198899277581  0.3756090529580939  0.4381868380301459
 0.3752839651144509  0.8744052205299586  0.1870132163882807
 0.3749410334958757  0.8752926834202545  0.4378769766580381
 0.8757672863399695  0.3772769018287713  0.1870910256866639
 0.8754449252845294  0.3734600043619082  0.4381428360036531
 0.8753536896160260  0.8775262821403603  0.1875297554437839
 0.8754248404598676  0.8737937599798314  0.4377030992942973
 0.2510800051681567  0.0016108196110984  0.0007970618377091
 0.2522298343570102  0.9990637345214202  0.2508831284202624
 0.2489520971464162  0.5011080411872672  0.0010143267390364
 0.2495374424836425  0.5001863133574107  0.2515737879453315
 0.7522560109114178  0.9976120141486691  0.0010798303239993
 0.7483015707455293  0.0022060321308514  0.2498477749305279
 0.7490242898950057  0.4987964699758308  0.0004904080144958
 0.7518712349827148  0.5010619199209080  0.2503495445980078
 0.3735363728072333  0.1244916929038372  0.0621673857133101
 0.3753553424967735  0.1248554033411622  0.3135739470549866
 0.3736730706495104  0.6259743708332325  0.0620950769027085
 0.3733187727163085  0.6229302368948095  0.3129194274972243
 0.8745719961233285  0.1265056201927394  0.0622159382280246
 0.8750946514214176  0.1244667531825718  0.3128178924793972
 0.8737282036129941  0.6228010247403930  0.0619755953776124
 0.8751471400333761  0.6244867927223804  0.3127164578429691
 0.2511118728778339  0.2507540146358592  0.1249684340335440
 0.2521195775271029  0.2496187530219364  0.3750646698370786
 0.2484027878335188  0.7491193148664695  0.1247310329043281
 0.2480846781230622  0.7498133677239287  0.3743313023228780
 0.7488278054131395  0.2509147090306344  0.1257596177916821
 0.7508711221269248  0.2504895434184800  0.3742342073008346
 0.7508277022750943  0.7522642999779989  0.1254660765694909
 0.7498318205025741  0.7511063200503613  0.3744142161128382
 0.1248620746743570  0.3748378298291809  0.5633576420165168
 0.1242210895406074  0.3763524469583953  0.8124367432747368
 0.1235938078189833  0.8738859004629801  0.5629197776713962
 0.1264635983726674  0.8739054984146936  0.8128991894275601
 0.6247349288593618  0.3756963901740399  0.5616820817562351
 0.6232451197324319  0.3745697250326539  0.8122447994584696
 0.6267327262495894  0.8743774001352655  0.5615429782314391
 0.6252046900658952  0.8742284048902352  0.8119274406688231
 1.0001819113202994  0.9990048632820413  0.6254157975173076
 0.9982159259522596  0.9980585130985591  0.8753419877278720
 0.0010759136136333  0.5009528206898147  0.6250442988755933
 0.0020387220320341  0.5018736740113744  0.8744810185830821
 0.5002062482399005  0.0001178559374364  0.6257221155091531
 0.5001720457985692  0.9986852154077736  0.8756335271866791
 0.5008138834614172  0.5017617736284306  0.6241399190605020
 0.5002048254558240  0.4989110353441081  0.8747431554696756
 0.1242938206569104  0.1258820699913104  0.6880135829073419
 0.1249533489878611  0.1243300311049091  0.9368961660834092
 0.1265957578315913  0.6249489279819230  0.6885308930737294
 0.1245968022533685  0.6253208767274204  0.9374532862010116
 0.6245206328824329  0.1251427748486668  0.6882202178787001
 0.6258831166061671  0.1255543427625903  0.9371311034849905
 0.6244362081338968  0.6243328150227982  0.6881338652557923
 0.6237015069761094  0.6256903441895565  0.9370520887404938
 0.0007089848330300  0.2507078940625208  0.5013160715738813
 0.0010391376172423  0.2495047905514648  0.7488952571669868
 0.0013746240266403  0.7491396458519335  0.9996912648894962
 0.9998494457790635  0.7504021606530340  0.7506232637545298
 0.4994658329144938  0.2485209061083426  0.4998273245103289
 0.5011317380020502  0.2490656072926000  0.7496481168453060
 0.5009647885946155  0.7491314197555129  0.9985995486663922
 0.4995362469047286  0.7488272789299196  0.7496482484788335
 0.3748596299509132  0.3742006522736100  0.6885998663905084
 0.3751850976639890  0.3749172109548018  0.9374000917549081
 0.3755945848315627  0.8734777233661578  0.6867075519997661
 0.3747599366356538  0.8753878559430818  0.9382823856676196
 0.8751612234792711  0.3767977136938503  0.6875402043715719
 0.8746237375090782  0.3728092515465622  0.9380856702453222
 0.8751360566329264  0.8772907445090818  0.6873072928398212
 0.8759548928424882  0.8742490959839250  0.9379873109296890
 0.2518984447728105  0.0013533309096242  0.5009282402890105
 0.2519081587506991  0.9997995239966659  0.7506474455696356
 0.2489600067923402  0.5001310998981104  0.5004666871606315
 0.2500347426467526  0.5016722044781285  0.7512663475660717
 0.7506221517696726  0.9991950167592325  0.5012871209165974
 0.7479600755028603  0.0026506087184400  0.7491685069558848
 0.7486171975333072  0.4983524013045808  0.5008500194721315
 0.7512676551680567  0.5007344779659084  0.7505130511380346
 0.3737397061232081  0.1244434688659587  0.5620579187636507
 0.3755180281327845  0.1231173039738683  0.8134854808466468
 0.3749693144871744  0.6253707665236269  0.5623606061095268
 0.3739343160237751  0.6237421871914913  0.8128885953011120
 0.8750638560780537  0.1266347921719174  0.5617953684649865
 0.8767687862994011  0.1246185009969692  0.8125272127658679
 0.8738012693370132  0.6232150440520950  0.5620081259106531
 0.8752558154559373  0.6245336547873420  0.8132473590710709
 0.2508855515966764  0.2491369892479195  0.6255434505053191
 0.2512945077919038  0.2489631679423629  0.8751084882557999
 0.2490822365510562  0.7481840834553527  0.6239887944722241
 0.2475417099217336  0.7500663942567559  0.8739391319459819
 0.7481783707089967  0.2505106826924979  0.6256566168612803
 0.7506825531894834  0.2502257426953463  0.8746531206233609
 0.7517794953078585  0.7520291455362889  0.6252505516565995
 0.7509925497355708  0.7497866104271690  0.8744743290209673
