Created from POSCAR
1.0
10.6360399999999995  0.0000000000000000  0.0000000000000000
 0.0000000000000000 21.7313800000000015  0.0000000000000000
 0.0000000000000000  0.0000000000000000 11.1541499999999996
Si
128
Direct
 0.1244461015513520  0.1864382381728703  0.1243679456739408
 0.5021054499968292  0.2498661352727490  0.2457453045899048
 0.1238774994924566  0.1888959424625628  0.6236184460904116
 0.1214531879542599  0.4381040442296394  0.1237914956704552
 0.1267219489240489  0.4375615366508402  0.6268453210360265
 0.6254746606109869  0.1867905481380017  0.1226740070839070
 0.6243651797432239  0.1858849705451622  0.6242845390749158
 0.6274572837117424  0.4369789308658456  0.1243718323011100
 0.6268415233485586  0.4371486669153527  0.6237553471897805
 0.9999094902866849  0.4990808051409136  0.2530364543170432
 0.9975615481515181  0.4985493784920835  0.7530667662956380
 0.0024643557578757  0.2503109628704132  0.2507997174389724
 0.0029995731148269  0.2512794092972824  0.7495084313114517
 0.4989950849582763  0.0009793021218925  0.2531402279795686
 0.5031444444693937  0.3743283010406575  0.9978040864437802
 0.4980510285845042  0.4994899166612669  0.7509919036239258
 0.5020379331611877  0.1254157145569659  0.4985735530362270
 0.1236424475782309  0.0630684968810112  0.3740955794169373
 0.1254528023306566  0.0618303784243009  0.8739361216278637
 0.1253449004941854  0.3115666783103773  0.3766693624906600
 0.1232673157652761  0.3128067878621140  0.8776927440910637
 0.6239989967742668  0.0633017040693004  0.3760559156480502
 0.6251692832855799  0.0630056780822908  0.8765991620662672
 0.6211876317556974  0.3118849645891330  0.3768370158796931
 0.6224439072845211  0.3137894712712352  0.8738631815747042
 0.0019552872998517  0.1251691853837003  0.0017551320920278
-0.0009454073383631  0.1252756952457521  0.4978652841250078
 0.0031080386542046  0.3744352611613481  0.9995170630919022
 0.9971286819621705  0.3748203710476057  0.5004507234511465
 0.4982467339296811  0.2492734373631556  0.7516654848625576
 0.4994422696943747  0.1260459393386866 -0.0003167683269589
 0.4965532008364159  0.3741663524116153  0.5003530307912811
 0.7524048155146044  0.1251385674604606  0.7511364045680062
 0.3746420957933666  0.1870234402621229  0.8763100498508543
 0.3758562873317217  0.4378761911029908  0.3737097183359829
 0.3753885720653360  0.4371865028289607  0.8775342110977179
 0.8739105041568408  0.1883844507665845  0.3737067674264409
 0.8732144716744580  0.1858592196151831  0.8765301102307538
 0.8765088360736554  0.4373713721629998  0.3766430126769362
 0.8751867370880237  0.4375875560735620  0.8765971662062830
 0.2513295386399514  0.0012281511530567  0.0030734704722991
 0.2496323154344676 -0.0004136893106070  0.5042453202387760
 0.2504978594419629  0.2495778580841201  0.0012254768323997
 0.2508341268934795  0.2513485025875593  0.5013672362971420
 0.7501585990004244  0.4998688954700367  0.0024354668535872
 0.7504263536228772  0.0009316827002182  0.4984239533816096
 0.3745885502261772  0.1866243317947026  0.3765515233791649
 0.7478585807192386  0.2495904408819661  0.0029839231703314
 0.3747621760991713  0.0630364505981593  0.1236926165931599
 0.3749189312771425  0.0616355478983840  0.6276219551414198
 0.3743838410882504  0.3118601478647431  0.1229177540504535
 0.3728085921206195  0.3115988543337967  0.6257391271392730
 0.8765899311297771  0.0621815464062188  0.1257437709377053
 0.8733396982595009  0.0630973445533053  0.6243929013921090
 0.8713859258573513  0.3122630618079555  0.1234537254397458
 0.8748723364895362  0.3122151882100827  0.6265378117251219
 0.2499776452189312  0.1241182219981621  0.2508177170188342
 0.2509326945573568  0.1235244450460906  0.7503180478108302
 0.2471238215619975  0.3748739526466977  0.2486036673198654
 0.2506554016432805  0.3747820449063759  0.7478097406719889
 0.7505957866863563  0.1245258143388362  0.2518188939029347
 0.7516855576417413  0.2513090305755264  0.4987189816889139
 0.7496925196241165  0.3753208058727294  0.2516191184545700
 0.7484956317869236  0.3760562856441048  0.7493669382888655
 0.1233019388920305  0.6875098581442797  0.1261048956075503
 0.1240564450919013  0.9380019946624705  0.1245042529731602
 0.1271164829813431  0.9372975131489466  0.6262350245557149
 0.6229771705735081  0.6874094738737037  0.1215818008901371
 0.6222066480581585  0.6873045665014837  0.6240567088819108
 0.6259630309796614  0.9371586293041539  0.1230052816992934
 0.6279020056790275  0.9378848100533852  0.6233030493856618
 0.9985531429120754  0.9986717784591054  0.2499135763427170
 0.9977778761889614  0.9994963384796318  0.7502269910164978
 0.0013844623202329  0.7494186411020116  0.2535904555789583
 0.0003813797963559  0.7510527136568158  0.7489850104512588
 0.5010274314369750  0.5002453600215220  0.2527062357603466
 0.5001090475029170  0.9999774943978682  0.7490970804370819
 0.5019119559198024  0.7498854256096203  0.2485462869784663
 0.4989246037246111  0.7490572619653102  0.7502361384865224
 0.1250879385005543  0.5632842415889315  0.3745504288799065
 0.1237324075178583  0.5614165667017141  0.8724123008761850
 0.1261024523037806  0.8116035211759874  0.3760567183381080
 0.1266400457525092  0.8135502151495844  0.8738308289559361
 0.6254671526039137  0.5631900646817802  0.3756701653448743
 0.6258999885941274  0.5618946001277905  0.8759983763592147
 0.6227258909904702  0.8131503516615102  0.3763553198049689
 0.6243970393115550  0.8129570969189254  0.8734243335193750
 0.0020677601486086  0.6263296985585201 -0.0000681976743170
 0.0028509306037364  0.6255371563626674  0.4967979614128186
 0.0003453155951974  0.8742710791851923  0.9997483763132060
 0.9959181812338431  0.8755929054785362  0.5016800167571044
 0.5011181153424611  0.6256857120354857 -0.0012074069723702
 0.5018365760555753  0.6265007966004676  0.4975468447481258
 0.4982248649703815  0.8753090443545899  0.9991792698581113
 0.1253349144821209  0.6882731068733114  0.6235945583609931
 0.4980603234832298  0.8725270035482725  0.4998519079329313
 0.3750158677796263  0.6872337738133559  0.8756467694289048
 0.7514890495452607  0.7502177326578642  0.5011982401296801
 0.3752067933962104  0.9381567788363934  0.3750349103185484
 0.3753343988914123  0.9367499978378980  0.8756744007400930
 0.8747301070331165  0.6882989558882991  0.3733597688202829
 0.8747904620699103  0.6858519445732857  0.8773742780439782
 0.8748039196398000  0.9378885651227715  0.3778251321299329
 0.8774846435742196  0.9375168548021359  0.8745437877980665
 0.2513056957741608  0.4998769553993870  0.0018393797821414
 0.2503664952414155  0.5004755333099993  0.5014153434586643
 0.2500197483062772  0.7493657714986418  0.0028683596194130
 0.2497843188509677  0.7505348744685680  0.5034194716124903
 0.7499576448208543  0.9999637785287905  0.0002660889191936
 0.7494640354276356  0.5006028220782094  0.5009258803083678
 0.7485240059898544  0.7495090572839533  0.0009675123345590
 0.3751327912845679  0.5622758108978931  0.1244307645204743
 0.3731992593887142  0.6860249787113951  0.3761407800971182
 0.3750407600296634  0.5626984184621092  0.6271920081640679
 0.3747294828017113  0.8125341561891326  0.1241052908475676
 0.3747876132509763  0.8126402323247695  0.6241210984722909
 0.8747231164712267  0.5631857758952081  0.1254306589841140
 0.8755970780111981  0.5638600143964347  0.6270402269659674
 0.8723534674734911  0.8123569021432078  0.1250043873676053
 0.8749258265708462  0.8139241873448182  0.6266623747496880
 0.2498260954862598  0.6237957333112932  0.2507578739130806
 0.2508224941031770  0.6250396404531807  0.7494156171435310
 0.2481394198652921  0.8748574620471231  0.2490811703726968
 0.2467763678172969  0.8748504714050949  0.7486972331001032
 0.7491981391824025  0.6250893377252371  0.2524658250944449
 0.7517330549477409  0.6254821716550188  0.7502403412677852
 0.7495609372068660  0.8759770140081815  0.2527994194431936
 0.7503088125134036  0.8756744639278774  0.7487973766801235
