Created from POSCAR
1.0
 9.9016920000000006  0.0000000000000000  0.0000000000000000
 0.0000000000000000 10.0040760000000013  0.0000000000000000
 0.0000000000000000  0.0000000000000000 19.1980260000000023
Si
128
Direct
 0.1236970699517026  0.3755483590180182  0.0630167881900810
 0.5013245345282217  0.7499319237918032  0.9992206995105477
 0.5015646803359589  0.2507786117306112  0.7498681880742486
 0.5014669656817246  0.2499005591812209  0.4999228637155737
 0.9993156463586427  0.7515762001206168  0.7499912823519665
 0.0013785328208407  0.7486719221956788  0.9998523531739739
 0.0017728983687108  0.2495884048935901  0.7489526951536020
 0.0010551945814048  0.2506094707993921  0.5007888044904096
 0.6237885923307341  0.6253997814919167  0.9370500024436575
 0.6239050253309104  0.6245334899560976  0.6884792100407763
 0.6258900521584214  0.1255851451428159  0.9372732771093393
 0.6239766260673587  0.1253698014277336  0.6874887468497016
 0.1247324367076903  0.6248893661057179  0.9377130327909567
 0.1253675671700524  0.6245238117600207  0.6890461052117470
 0.1250173023991189  0.3765421101598365  0.8123643472893395
 0.1242853941765379  0.1242126640256996  0.9373409732365346
 0.4983164396202494  0.4988086286598854  0.8752531816868913
 0.5017511329187815  0.5011368142195144  0.6245012755333441
 0.5007458810915770  0.9981428839140252  0.8755908984703685
 0.4989185518946653 -0.0000966461114687  0.6257541828881905
 0.0014754394201413  0.5013182556709943  0.8750033597132060
 0.0015688336695156  0.5012871250388109  0.6254378241658527
 0.9984620586601743  0.9997564290209308  0.8760816820743572
 0.9995441465343113  1.0000322797030239  0.6258177287653348
 0.6256522643415199  0.8749747046741758  0.8118869612321421
 0.6262663946771202  0.8748572595727551  0.5613997859721761
 0.6230333795930645  0.3737642946417184  0.8119920455717673
 0.6241209366815327  0.3756229260569689  0.5620010458954185
 0.1253612884787568  0.8733712034340262  0.8127311454737576
 0.1252883236441604  0.1258181573870677  0.6874532459849061
 0.1240067752334972  0.8726501752279728  0.5627651202995854
 0.5007343630131471  0.7497014044072412  0.7499667158867781
 0.7515752225053605  0.4994774756423659  0.7505867956720111
 0.7503993730074546  0.2504900732281733  0.8738817252652622
 0.7478282537338582  0.2503775921644865  0.6255594710579617
 0.2473177281012611  0.7499035322312808  0.8746958424569179
 0.2483715983320713  0.7483744085475761  0.6246902930512428
 0.2522589868777700  0.2497512922929155  0.8755247948116580
 0.2515899150607815  0.2487165480456929  0.6253612830054559
 0.8761399294431371  0.6243808008445298  0.8128241459258093
 0.8728334729258288  0.6230312059071494  0.5618178402822307
 0.8740803401900228  0.1250637192116330  0.8132298097089391
 0.8758521330524438  0.1270317869729023  0.5620042910187665
 0.3739332990099825  0.6236947911638073  0.8129435473107179
 0.3747229896063551  0.6253720606207288  0.5620693616077420
 0.3759521864544070  0.1245237465862103  0.8131267286302279
 0.3758234346187330  0.3741565245518270  0.9376613612270440
 0.3740307807796145  0.3732416041840192  0.6885282639786618
 0.7490025349765770  0.4982871967589801  0.5003889188731795
 0.7483610403307696  0.0022857156054160  0.7493054588475715
 0.7512408201448911  0.9983710164401112  0.5014610256100408
 0.2495235075420471  0.5014479321738262  0.7511366584116265
 0.2496755021427874  0.4998269513418507  0.5010497499294269
 0.2522546372816724  1.0004118142421348  0.7508230974588745
 0.2512500554813512  0.0007695619205094  0.5006716252001721
 0.8748923376447919  0.8743604010979515  0.9380569138507313
 0.8758543736908411  0.8757711507957333  0.6872624499890868
 0.8763436207700569  0.3727993468022005  0.9382545933207234
 0.8752965032113263  0.3756600065968950  0.6870863897711179
 0.3745386352489924  0.8765099128437179  0.9378417109957149
 0.3747727908013503  0.8729444145932315  0.6866410137229858
 0.3726822048708935  0.1257454845738031  0.5623119542588201
 0.1231860565561200  0.3748401971440848  0.5628359023149844
 0.7492870334530614  0.7491812468322061  0.3748288935449379
 0.7503227496485754  0.7510734254495384  0.1252986691290013
 0.9986794408749091  0.7515132573454765  0.2506861645564037
 0.0025295720991162  0.7478589624934727  0.4992342767428538
 0.0008179858531832  0.2491627708199517  0.2488183460780320
 0.0010963374828853  0.2501144780449112  0.0005107193731769
 0.6233365091264800  0.6250675908911590  0.4373050388295978
 0.6240231261866617  0.6235655525001991  0.1880482103292830
 0.6252810896245056  0.1255616423967339  0.4373585533423980
 0.6251878625596163  0.1245011801663653  0.1878599449022696
 0.1253626948962914  0.6243457523709167  0.4379243713737505
 0.1264394282245617  0.6246860815782862  0.1887763004644614
 0.1248575450886156  0.1243595410730478  0.4368380969414422
 0.1249771708218562  0.1241855867935130  0.1866020764200774
 0.5024822261814759  0.2509251375732908  0.2500402430459479
 0.4995694129861507  0.5002237660017865  0.3749683398054786
 0.4994649470015983  0.9991882344593954  0.3753811656356559
 0.4997872105504407  0.0002734982456867  0.1254198247604827
 0.0013402141314789  0.5021968082294102  0.3744329341456372
 0.0019941773098417  0.5006793698058536  0.1257404430762351
 0.9991507268281404  0.9987912351472827  0.3757298026613480
 0.9989677501007851  0.9990640402963191  0.1252978867520974
 0.6254230771079198  0.8738634281847877  0.3114677132131147
 0.6267089461169076  0.8752135893591051  0.0619387071103020
 0.6232503520733155  0.3731894810335991  0.3123430070807309
 0.6237858215173387  0.3763007502663119  0.0621525458811575
 0.1262822398538820  0.8749105016936124  0.3132982577572813
 0.1239452868612189  0.8735313397674739  0.0629680778646573
 0.1253914413864730  0.3760365491775090  0.3123895072865267
 0.5011800089985184  0.5007913905511060  0.1243121507058508
 0.5008205336849513  0.7494849760167737  0.4987723678645378
 0.5012209766066246  0.2500034496805397  0.9994161481321451
 0.5002366080970060  0.7486536808594374  0.2500691392401003
 0.7515978234639149  0.2510237845890859  0.3745493999207691
 0.7514107550863373  0.4988860707766549  0.2511130900173114
 0.7489767888280885  0.2508506905079340  0.1257991543620371
 0.2478988360675460  0.7486896229097109  0.3741652050776286
 0.2490969793809282  0.7488536405392178  0.1250642294625681
 0.2517633012181166  0.2495183420243827  0.3752580472094014
 0.2502970201376550  0.2490004710999128  0.1253899883930499
 0.8766784985435908  0.6251608175862919  0.3125756772605403
 0.8743579876348799  0.6223719055405816  0.0623898070949441
 0.8744666868322343  0.1249665883020626  0.3126180055606069
 0.8742167733959196  0.1262098808754183  0.0623048842150161
 0.3743017259768771  0.6246299063493609  0.3126137526711486
 0.3737120496980743  0.6251609091363349  0.0621968213265126
 0.3755940250434351  0.1239518302361792  0.3134447168689535
 0.3741988867660530  0.1252526375430203  0.0621323687598919
 0.7492724821188470  0.4987902984085891  0.0003819601420273
 0.3744263788623878  0.3734514487299656  0.1885310451587708
 0.7476100009717481  0.0014243186126424  0.2492992928860445
 0.7514917344550497  0.9986601714451869  0.0006970068252236
 0.2493508779912288  0.5009775751933753  0.2507628996572362
 0.2491936017055798  0.5003602644022654  0.0008749413702066
 0.2515772233618109  0.9983803309127071  0.2507218940264294
 0.2512278955224909  0.0008669399968505  0.0003148475745096
 0.8762562292982394  0.8740992713959140  0.4377532015615054
 0.8748504121500892  0.8765473499667817  0.1875290887418401
 0.8740381366911959  0.3730172924110224  0.4371681172842656
 0.8751340945546320  0.3756410703950152  0.1874021994540449
 0.3743257424092981  0.8757950784558571  0.4383536554625037
 0.3740224693434749  0.8743141421042721  0.1869761753326692
 0.3750289604725316  0.3755079941996716  0.4379851677066554
 0.7518185543579057  0.7513938203257247  0.6253523021026873
 0.7487294171042670  0.7505775020926396  0.8746290238024906
