Created from POSCAR
1.0
 9.9016920000000006  0.0000000000000000  0.0000000000000000
 0.0000000000000000 10.0040760000000013  0.0000000000000000
 0.0000000000000000  0.0000000000000000 19.1980260000000023
Si
128
Direct
 0.1250258900439407  0.3751489856585207  0.0624511037391169
 0.4997780269455755  0.7496256981359302  0.5000459833679674
 0.5001682553559851  0.2488762633523586  0.7501267640746268
 0.5006765059587407  0.2507217271148374  0.5006333321722606
-0.0007340528411472  0.7507808461049406  0.7496850405359290
-0.0000506096300449  0.7501948904869038  0.5001664864004188
-0.0001558666412774  0.2505429524272236  0.7504553540401117
-0.0006509598736732  0.2492908223794557  0.5002214441119440
 0.6245767504138319  0.6250737590361399  0.9371786459227719
 0.6255798328596517  0.6248215627604784  0.6875733606067794
 0.6246555134025964  0.1251895093231229  0.9376471308139075
 0.6258538123747455  0.1259864890400451  0.6876553563201721
 0.1247207212130373  0.6246570483782499  0.9369425199430479
 0.1253753735083173  0.6247449230007800  0.6875215400812335
 0.1253998409617065  0.3749702631181395  0.8123244092702320
 0.1251409721789690  0.1250302825038083  0.9376144065044413
 0.5004170400501627  0.5000116797691910  0.8752250747766436
 0.5002284522462692  0.4993580426868270  0.6250907726277123
 0.5013178290764024  0.9987674713400055  0.8750499379621356
 0.4997734900747571  0.9997028570449530  0.6242278178348983
 0.0010284941724566  0.4988197167951373  0.8750738295300842
 0.0001099269277007  0.5001496111696658  0.6247662836174573
 0.0010956075233254  1.0003044218242916  0.8747601717419249
 0.0002775906320405  0.9990394147838826  0.6241819077628129
 0.6247551603297378  0.8748808231276571  0.8128404551133050
 0.6265181401264261  0.8749236157264235  0.5627782681287290
 0.6253096227557653  0.3757628340401283  0.8130322249499305
 0.6249233110934613  0.3750193781167058  0.5622107029671971
 0.1244750238975289  0.8753285370119643  0.8122955483500296
 0.1260201866734421  0.1250451071501506  0.6882048304780294
 0.1255319788208787  0.8752997644894265  0.5628863705030600
 0.5007043178053546  0.7506714684028819  0.7500149313652180
 0.7501265315886734  0.5006741429736158  0.7501172017748909
 0.7496574848587310  0.2491915017704150  0.8745024515749493
 0.7503271982850326  0.2503393124575171  0.6252582496902095
 0.2502508002595402  0.7503506861956701  0.8752797181331735
 0.2488385444421139  0.7494145105215396  0.6251406982323726
 0.2513088348476330  0.2502050585871263  0.8754087235873750
 0.2501738506995955  0.2497951806320591  0.6247728730693557
 0.8736655896378215  0.6245892652059898  0.8125480630270513
 0.8746826037759254  0.6249579301703512  0.5624127316715279
 0.8752632558686526  0.1260087876424979  0.8130491383714360
 0.8755840768631532  0.1243101115013652  0.5622249486029077
 0.3754941842937155  0.6250891973380849  0.8122053343320335
 0.3766615991504548  0.6250899537634418  0.5628744765326221
 0.3748620999683095  0.1248145001559271  0.8129553553746355
 0.3753722640580244  0.3755948576251137  0.9373692078539938
 0.3752605889557544  0.3747733434606599  0.6868157425276638
 0.7508188301966418  0.5001864491140499  0.5006129472396043
 0.7500060065187174  1.0002643422289939  0.7504093067666632
 0.7509547981243806  1.0001137888704015  0.4994215048582046
 0.2503560052365921  0.5011012333121641  0.7502840774376489
 0.2498876814152412  0.4995368265935424  0.5000354431818725
 0.2508355771089086  1.0010044501355106  0.7506354226160180
 0.2494742545829108  1.0006026292217396  0.4998007765189535
 0.8743103656472422  0.8743098186367334  0.9374401425321062
 0.8751532187226628  0.8753795778240688  0.6874460701099621
 0.8743318861941495  0.3744961441299363  0.9375100999061872
 0.8754264408238934  0.3749169058683080  0.6874670084728955
 0.3749900079320199  0.8743941420494000  0.9372921545865193
 0.3750409443304768  0.8747606813669682  0.6873061312530435
 0.3746361818148701  0.1257809399155133  0.5625863025416300
 0.1259526240460974  0.3749082820789982  0.5630278718446708
 0.7497513621387094  0.7506300199758171  0.3753674294616453
 0.7495368470206046  0.7496526819315941  0.1251640674653186
 0.0004993556488021  0.7498768067057412  0.2501837480977212
-0.0008746507665347  0.7493907172505795 -0.0001935447557462
 0.0008239349218817  0.2496957486955350  0.2496942803486744
 0.0002109735957255  0.2499677132802701  0.0000249820767830
 0.6241864852361585  0.6256665776871012  0.4376496717273387
 0.6254951715509476  0.6245752462195080  0.1877549883162256
 0.6247040869031536  0.1252285465266108  0.4376077511911156
 0.6252037592863035  0.1252327006880566  0.1872862566858158
 0.1263157209702963  0.6244892309570800  0.4374264852878074
 0.1254734057035813  0.6254494335811445  0.1880122535225823
 0.1246936231117656  0.1235585231307601  0.4373966028966929
 0.1254798632102868  0.1249179879005902  0.1873231431966759
 0.4998845791992313  0.2497675916637185  0.2503145139324504
 0.5006736330434215  0.4992618234696070  0.3750092049896769
 0.5010078941382937  0.9998507103124872  0.3751904845737973
 0.5001478434286775  1.0001866164739868  0.1244146324254874
 0.0005225944394233  0.4998898179893347  0.3748791989502359
 0.0001818536556695  0.4996191402543380  0.1253075550979503
 0.0005494002263104  1.0004706517928037  0.3753088466279280
-0.0006281269200326  0.9999153908703530  0.1255700218176720
 0.6253075577270898  0.8741180543630230  0.3123118910005201
 0.6243104949887625  0.8748436408069984  0.0629699172588611
 0.6249615364618939  0.3754662882519214  0.3132573444226961
 0.6248251358169795  0.3756727314915504  0.0628288615109900
 0.1245688003737359  0.8742552719011294  0.3123283507921710
 0.1251222412521447  0.8748606531906677  0.0623009924710102
 0.1246911782536495  0.3747487786762878  0.3128963867958341
 0.5005496123608629  0.5007802872312256  0.1248641782911083
 0.4999366046122968  0.7498637838556802 -0.0000423654946898
 0.5006970669219669  0.2494093543267919 -0.0001984856749533
 0.5004315219616767  0.7498820195403436  0.2504641399528994
 0.7496970011633012  0.2494374795695725  0.3753426170562426
 0.7495950327781437  0.5002366171615945  0.2501521940762522
 0.7499423559784371  0.2495967400503311  0.1251198607789450
 0.2504371798294265  0.7496147461572786  0.3753207510927887
 0.2496760445643755  0.7504845019735117  0.1250299721737325
 0.2504588210377924  0.2500896383869685  0.3754442914197124
 0.2500166769968797  0.2491952731447745  0.1254166409629495
 0.8746689927067455  0.6259435908641042  0.3122316449682561
 0.8746994813674990  0.6254042399931962  0.0627435218973933
 0.8751621868380040  0.1256602069574016  0.3122848641633188
 0.8746491623199332  0.1252496857248818  0.0630449697630887
 0.3752475336745527  0.6250619096267273  0.3131444461540561
 0.3743218853005667  0.6242174430192916  0.0629394114226240
 0.3753527682604312  0.1242636714637350  0.3127524401924817
 0.3755830788090074  0.1249633335482385  0.0627504314688269
 0.7502172105214816  0.4991833518498054  0.0000935763407547
 0.3743838115406519  0.3759314330490003  0.1871809587634674
 0.7492807755126043  0.9997399041967968  0.2498486940044713
 0.7507576012825058  1.0011794501181583  0.0002278500597564
 0.2499614107174628  0.4988596007669288  0.2498212908900875
 0.2511284601867054  0.5000649729721183  0.0002332245326579
 0.2498159438657599  0.9993298467201941  0.2503050790367727
 0.2499107838852412  1.0007261562093070  0.0001459959145671
 0.8750678335241088  0.8747974508717308  0.4374033197624165
 0.8750487344282305  0.8744689567084257  0.1882839702779880
 0.8757562948505500  0.3748696997768403  0.4372269746581491
 0.8745692964328684  0.3752518948375634  0.1880000684118866
 0.3738544698597108  0.8737913900118559  0.4373293666816884
 0.3745450828129495  0.8746949613251613  0.1879181194803485
 0.3753348896616777  0.3736163812030281  0.4383135341231420
 0.7497240571529251  0.7502740000990529  0.6248265223219043
 0.7505846344523194  0.7506315475660164  0.8746245123464704
