Created from POSCAR
1.0
 9.9016920000000006  0.0000000000000000  0.0000000000000000
 0.0000000000000000 10.0040760000000013  0.0000000000000000
 0.0000000000000000  0.0000000000000000 19.1980260000000023
Si
128
Direct
 0.1243295241614594  0.3752661588700508  0.0629798880148278
 0.1246847453774390  0.3768964859696128  0.3127030806476466
 0.1231769805663363  0.8741100151760205  0.0632280442031785
 0.1259050959636969  0.8746816515030922  0.3127886327675023
 0.6242122372045171  0.3756444331695187  0.0615283361740861
 0.6224695716543256  0.3734635800985965  0.3124909542876106
 0.6266156569615348  0.8747758656114174  0.0612454727842329
 0.6258733732585354  0.8741986227757605  0.3113557630559561
 0.9999906404819803  0.9986314679029065  0.1252084724073639
 0.9993151935250697  0.9986104403022613  0.3757069592435028
 0.0010570763670606  0.5015893260858663  0.1253769382855327
 0.0010488941572865  0.5014189430443382  0.3747549327236288
 0.4997690264991844  0.0005380369633513  0.1260319380093721
 0.5002780176472659  0.9988125450577945  0.3745050047897984
 0.5009439876582981  0.5011910671211087  0.1246491626069880
 0.4988779918846659  0.4994843879065153  0.3749763431126286
 0.1255679028347474  0.1260435143130189  0.1874501534357149
 0.1235593570449049  0.1241351658935141  0.4370464359569836
 0.1264906995750377  0.6240420200921640  0.1882163326200073
 0.1248281371343319  0.6251597356538994  0.4374116049769987
 0.6240741207565431  0.1257831051722419  0.1877244191368959
 0.6260171066703889  0.1252203426822430  0.4370212879563255
 0.6254045113647012  0.6239105405575315  0.1880500773531419
 0.6244081980984217  0.6252281893068146  0.4368829414255352
 0.0010862968249906  0.2513274480405348  0.0006574024898240
 0.0006131130787386  0.2500398808584676  0.2490491505304117
 0.0015270598713232  0.7487028461798003  0.4995859796947142
 0.9994798236881507  0.7517311315654711  0.2503948489855722
 0.5011652430144498  0.2503505363930870  0.9994502533953172
 0.5028282558358932  0.2505084196069891  0.2496475779714338
 0.5012938835754086  0.7497384947745095  0.4992429548965220
 0.4999154870927345  0.7499203008234459  0.2497634769446050
 0.3745500313707386  0.3723169019310894  0.1885001577453504
 0.3746504234254582  0.3751334337315866  0.4379083775512803
 0.3747379362928079  0.8726809362218709  0.1872353925444189
 0.3742523135043559  0.8754796150951335  0.4382022633056389
 0.8770231133747142  0.3760921677581997  0.1867031397796073
 0.8757938633475559  0.3715354531563055  0.4380240822755077
 0.8739028125427571  0.8767538443055868  0.1879163153231213
 0.8757253088356297  0.8747460881611129  0.4380682525217698
 0.2518591106680348  0.0012884775979565  0.0006608239460733
 0.2522686220078217  0.9986955998766257  0.2513034060719761
 0.2487665483507331  0.5010220132436352  0.0013786808852268
 0.2495699476831828  0.5010723675745973  0.2508657746046771
 0.7519961185679087  0.9981330533115809  0.0010752323002738
 0.7483644738415275  0.0004798739702675  0.2494179283568804
 0.7492033786119573  0.4974301308857866  0.0000607754433349
 0.7509256775510859  0.4999866862731550  0.2508010848498684
 0.3727930058620103  0.1246160339698376  0.0622613261098185
 0.3749495053508548  0.1227723045564118  0.3129472687360458
 0.3735160115155007  0.6255241018781196  0.0618886927401262
 0.3729276411388356  0.6237296864831889  0.3122249484430865
 0.8747544479136740  0.1248095677239617  0.0615026654911362
 0.8743626245046422  0.1249028442427705  0.3128901116473882
 0.8744077366277070  0.6234938545127462  0.0620830199424903
 0.8751640703020364  0.6239345503142062  0.3128513257166740
 0.2505268503807597  0.2490852514875553  0.1254891072199093
 0.2514827206356546  0.2505350127966693  0.3746609080621444
 0.2484976827974659  0.7486496730676288  0.1248181249696273
 0.2474170748642089  0.7502094481090318  0.3739571089387560
 0.7483821195410686  0.2507758636798667  0.1256729454821392
 0.7500183460536123  0.2499894955716138  0.3739998023743210
 0.7520115859929403  0.7519661242873660  0.1250984734815607
 0.7497079210755135  0.7504824023426845  0.3745073173620547
 0.1233726402245891  0.3762532346945717  0.5632027625062151
 0.1251057474841140  0.3757886364539932  0.8123182647025941
 0.1239882333976159  0.8734356960421683  0.5627610399918280
 0.1268204266328385  0.8736971976417439  0.8127930009837857
 0.6239068353742161  0.3760989449796456  0.5621528855921089
 0.6230804186157460  0.3745383968712566  0.8121383368080189
 0.6270024953132836  0.8747129627877631  0.5620269457343348
 0.6257655492988377  0.8743700313198141  0.8114204433049385
 0.9993740659116258  0.9999730871923704  0.6254025821815057
 0.9988967656045364  0.9996982886204340  0.8755361642920791
 0.0012040737355198  0.5002013092480686  0.6254090201656691
 0.0003393475112027  0.5020943536014868  0.8747283317779898
 0.5005331906146597 -0.0004956423652123  0.6254798800448074
 0.5001425891043292  0.9976565365656437  0.8754830168420620
 0.5022826834705824  0.5020331260854739  0.6240548555806976
 0.4986263209189181  0.4995286069470123  0.8749725936245613
 0.1242328169282823  0.1269960185322976  0.6871999753315411
 0.1248390555045532  0.1240359456774034  0.9366871834093070
 0.1256874939524386  0.6240469009702051  0.6882817132996487
 0.1237534916746893  0.6250769324337854  0.9379014945703397
 0.6244058712457714  0.1259492193845016  0.6878623713804712
 0.6259375333735845  0.1248029227003652  0.9376476174493349
 0.6239126073775310  0.6230559674737649  0.6878977472359058
 0.6233979218238973  0.6239957444624502  0.9370695019729245
 0.0011094386967826  0.2500177457642088  0.5003975325709124
 0.0013345864962727  0.2495349226829528  0.7488851475896032
 0.0015596590770021  0.7482873549969499  1.0001397729205690
 0.9990920719272233  0.7513923512913129  0.7502424558627964
 0.5004150944599207  0.2489020238170091  0.4996730880211347
 0.5009240013333129  0.2499824474494852  0.7500076842809662
 0.5015258388129483  0.7507611544854594  0.9989987030131101
 0.5003656214152233  0.7498516855409239  0.7499150447227614
 0.3758750094126848  0.3742829877382194  0.6885462329956565
 0.3749052047690994  0.3744925022406629  0.9379353774092368
 0.3742434004996521  0.8737850608965774  0.6871857592487812
 0.3737728432739545  0.8758105521335864  0.9378060414252262
 0.8752745751713811  0.3763362288761616  0.6868481876642789
 0.8753567171047807  0.3726213155411199  0.9381022667581024
 0.8758290598521398  0.8766044624948610  0.6877250581811553
 0.8749534202616229  0.8730740989766891  0.9378406401866017
 0.2511930267817203 -0.0006103497153101  0.5010182536100842
 0.2519811332723781  0.9998357686386968  0.7509661786461381
 0.2491172560395559  0.5000759806203438  0.5011000296177925
 0.2505066679714676  0.5009495228582134  0.7509733571328184
 0.7505068906938774  0.9993325641456643  0.5007870232106425
 0.7481539636687827  0.0015983086516422  0.7495020873006325
 0.7488187640429568  0.4979993248823069  0.5008612168549582
 0.7508943507461499  0.4997555623275781  0.7509179882218687
 0.3729695982333228  0.1258330297617956  0.5619429060346220
 0.3744601270959832  0.1236990610407128  0.8132250819358603
 0.3741736104230285  0.6256619748398015  0.5626810267910380
 0.3741853548170145  0.6244036535301043  0.8124002669433585
 0.8741039014504928  0.1263182511399228  0.5621705028000702
 0.8752474021096094  0.1251596798270400  0.8134779902334294
 0.8739876350075262  0.6235452566336301  0.5615624322031937
 0.8761790089090249  0.6244185769614065  0.8121933483491175
 0.2504877206532106  0.2499416404270154  0.6253464667427887
 0.2526441404511907  0.2504376160683727  0.8752539731985050
 0.2487044436847294  0.7485178438428725  0.6251765494922116
 0.2478322500077883  0.7496012751410568  0.8746508383625756
 0.7489499146226102  0.2517816198964650  0.6256591292279596
 0.7511739686934780  0.2511658728792784  0.8744730495246383
 0.7528674577307081  0.7520318458142224  0.6253844755176254
 0.7500392320044670  0.7505202193323445  0.8747335436750027
