Mo4 S8
1.0
   3.1903157348000000    5.5257885468000003    0.0000000000000000
  -6.3806307799999997    0.0000000000000000    0.0000000000000000
   0.0000000000000000    0.0000000000000000   23.1297687333999988
S Mo
8 4
direct
   0.1666666666670000    0.3333333333330000    0.4323432765480000 S
   0.1666666666670000    0.3333333333330000    0.5676567234520000 S
   0.1666666666670000    0.8333333333330000    0.4323432765480000 S
   0.1666666666670000    0.8333333333330000    0.5676567234520000 S
   0.6666666666670000    0.3333333333330000    0.4323432765480000 S
   0.6666666666670000    0.3333333333330000    0.5676567234520000 S
   0.6666666666670000    0.8333333333330000    0.4323432765480000 S
   0.6666666666670000    0.8333333333330000    0.5676567234520000 S
   0.3333333333330000    0.1666666666670000    0.5000000000000000 Mo
   0.3333333333330000    0.6666666666670000    0.5000000000000000 Mo
   0.8333333333330000    0.1666666666670000    0.5000000000000000 Mo
   0.8333333333330000    0.6666666666670000    0.5000000000000000 Mo
