Created from POSCAR
1.0
10.4517860000000002  0.0000000000000000  0.0000000000000000
 0.0000000000000000 10.5598580000000002  0.0000000000000000
 0.0000000000000000  0.0000000000000000 20.2645830000000018
Si
128
Direct
 0.1242976564678776  0.3752027540070883  0.0629317673592259
 0.5010139367844109  0.7490434429908062  0.9991199992080563
 0.5019132499634354  0.2504898571957445  0.7497117827623957
 0.5013138556443377  0.2493502882518410  0.4996558082971340
 0.9987912553287829  0.7513081229189211  0.7501391299450728
 0.0009474761601959  0.7486100280644742  0.9997841416080050
 0.0003427244659202  0.2494806894150797  0.7487050039597474
 0.0004409154168129  0.2516914355312249  0.5008735175126900
 0.6252433912197296  0.6249063267878212  0.9370857158024852
 0.6241170733521121  0.6243662604286363  0.6880176137452864
 0.6260222471210599  0.1246348167891565  0.9369017851618425
 0.6238529718600777  0.1245648664803798  0.6882212027962910
 0.1254095652096382  0.6254524289768840  0.9374085165499040
 0.1252631926989900  0.6243697714393251  0.6889403760779410
 0.1247753423512994  0.3762362596457128  0.8120670025365925
 0.1241666914763509  0.1242047540060316  0.9364444918969136
 0.4996085142293827  0.4997569392313947  0.8749611221053617
 0.5015253659170000  0.5013334338785346  0.6238076657712975
 0.5000090992376215  0.9983334207079491  0.8756573015829543
 0.5000196228193587  0.0005382412667462  0.6262899403977279
 0.0012335523729027  0.5022753968256286  0.8747261164519313
 0.0022151536192181  0.5010511269852918  0.6252277872010321
 0.9990268940815829  0.9986669262810978  0.8758736647049093
 0.9993627450648612  0.9992174945494384  0.6251349357753372
 0.6254386500027311  0.8745949296353334  0.8114481354934996
 0.6268588047723027  0.8750732198408576  0.5617534116188478
 0.6235951473034713  0.3740195619394981  0.8122740469893782
 0.6239352479093218  0.3758538241077267  0.5614559564493278
 0.1254393249320123  0.8747729497311357  0.8127632034470440
 0.1254759055014664  0.1261746309350479  0.6875720958009650
 0.1236357345751998  0.8740105912655642  0.5631062216728538
 0.4996353872238184  0.7494851815352703  0.7498796914965901
 0.7506446285718645  0.5003716241643357  0.7510753591197860
 0.7506914888831463  0.2504409568326751  0.8742065456677475
 0.7487751343247714  0.2507254782776572  0.6257496041174035
 0.2480506673971836  0.7495872619178164  0.8742130668732833
 0.2486366651533314  0.7475857838760959  0.6248646452551251
 0.2518788520079470  0.2502089052087712  0.8750866941154630
 0.2507633735847350  0.2496387495680754  0.6248282145652079
 0.8764556309165613  0.6256165247856378  0.8123448695374749
 0.8735078388636408  0.6222026430404531  0.5617450454651942
 0.8761890194001174  0.1254880026169703  0.8125148261956159
 0.8758790438067781  0.1260297440065255  0.5618244374654793
 0.3725324853871975  0.6241464999565859  0.8123938394225212
 0.3753597994622966  0.6261705703554115  0.5620019404967271
 0.3753218685606518  0.1243472996235764  0.8134720450677383
 0.3759258774682142  0.3746131720735889  0.9378682148273234
 0.3750902092707288  0.3731241395196818  0.6881244960266873
 0.7495820705125248  0.4974437592125419  0.5004428394601494
 0.7486860136254661  0.0015027617541570  0.7497348152489471
 0.7510148144347563  0.9986072455295256  0.5007000558263313
 0.2500914898886075  0.5003932465041820  0.7513038967284514
 0.2497467006505554  0.5007098219281305  0.5008268287096532
 0.2516208733899546  1.0001961880676995  0.7508087198452271
 0.2499055190432914  0.0013082308537181  0.5004705290623885
 0.8750688873606521  0.8734784136756641  0.9382409461819738
 0.8755700441909336  0.8757523387721627  0.6875868899470331
 0.8746741897728493  0.3732671197288894  0.9373594298797029
 0.8746890996105161  0.3783898572178098  0.6869623203994442
 0.3743252041498009  0.8762033640750155  0.9384394966184458
 0.3750585776837269  0.8737210983812437  0.6869872482936398
 0.3737746304244581  0.1243898915403259  0.5618705023368010
 0.1242040523515409  0.3749172512726446  0.5628576147711595
 0.7505354221580393  0.7509118544367889  0.3748515714902121
 0.7504717929233647  0.7515819101508155  0.1252169022640947
 0.9988585288578830  0.7518591000343573  0.2505670431087715
 0.0013432366658666  0.7482532421546474  0.4997065922997181
 0.0010188022963231  0.2498327148934651  0.2491457480401635
 0.0011413745832481  0.2505607345822394  0.0003346778628573
 0.6240681500156766  0.6249065524875366  0.4365023620840495
 0.6243091942802573  0.6240803701766109  0.1872999076366165
 0.6258431731585287  0.1250422501666404  0.4371237265948522
 0.6242267860207262  0.1254923927468688  0.1879411643836651
 0.1248509147999805  0.6247310646750700  0.4378334230926765
 0.1252510667727116  0.6243136132983721  0.1883053172743633
 0.1242735763557326  0.1247470064543981  0.4370795751888857
 0.1249614411294426  0.1272442731700066  0.1877957243533083
 0.5016951166551882  0.2508489105213152  0.2496443976020179
 0.4993513094989616  0.4991495162001195  0.3747059894836645
 0.4988842581938359  0.9992307419679690  0.3749815038177843
 0.5000538607144401  0.0006894913279154  0.1257277059537833
 0.0013074943220704  0.5021977237052611  0.3745380409178974
 0.0013988466467823  0.5001866341265258  0.1250393028773461
 0.9993244174771758  0.9998882551399059  0.3755353445101237
 0.9994717199176698  0.9998273043929594  0.1251895907873080
 0.6251063476662643  0.8757311726363515  0.3116542054456417
 0.6283153208826907  0.8738135548322493  0.0616215561036338
 0.6233749555865301  0.3739323827096168  0.3123694510046507
 0.6246958827338699  0.3749105546853336  0.0615294465826488
 0.1253979552901006  0.8742590763900328  0.3130497028237334
 0.1240942752811678  0.8730313083849583  0.0629028385105143
 0.1242514743362260  0.3763734091422218  0.3127979384623920
 0.5015199556411972  0.5010790634856397  0.1243844920544234
 0.5009258057460542  0.7494121444300820  0.4991639623136584
 0.4999478153681290  0.2490159795469383  0.9999081646063602
 0.5004686018854729  0.7494219966382641  0.2497867831971765
 0.7507482870194028  0.2504118823040508  0.3748029308018218
 0.7512836181599323  0.4999139565221670  0.2505376071622184
 0.7483541510442444  0.2511199650159537  0.1256536782783947
 0.2484086464570141  0.7491748421220165  0.3744690437833298
 0.2491173749513809  0.7484017709468416  0.1247013091089983
 0.2526297837560030  0.2493629493970905  0.3751596956894800
 0.2509646641427180  0.2495352493638566  0.1252407077982805
 0.8756720492670700  0.6257180786698222  0.3129056227737768
 0.8743232849168879  0.6221732096283545  0.0624171911703770
 0.8742346562667233  0.1244753704647827  0.3126729517576146
 0.8750825656408778  0.1267156899590272  0.0625257922260820
 0.3742428281389483  0.6230022126822088  0.3128399394972856
 0.3747731053473120  0.6241523644687523  0.0623769715431147
 0.3758797801765338  0.1238111556997605  0.3129064793543539
 0.3735781077727154  0.1241017295423635  0.0620902616051225
 0.7492691524724373  0.4977398381522677 -0.0000312915457811
 0.3754573961552355  0.3733724024338045  0.1883710266153701
 0.7486905359002146  0.0020269459817734  0.2495987825248417
 0.7516343068808801  0.9979422426929150  0.0008449199892332
 0.2501210629056128  0.5005665951852620  0.2508755078294578
 0.2484390257159934  0.5005752935630713  0.0011916146054494
 0.2516434421364928  1.0006448764160283  0.2507107494687214
 0.2509592765229586  0.0011440411753208  0.0010097157179406
 0.8760093739180040  0.8738818671154149  0.4382498572536331
 0.8752811491963942  0.8766199692457526  0.1874005444405007
 0.8746382582574318  0.3718022665070536  0.4375663089341402
 0.8750574517229215  0.3763038882739237  0.1868507887896882
 0.3746566305559390  0.8759978561767517  0.4379050202562543
 0.3750351260397325  0.8740882039160603  0.1871869579699761
 0.3746378888387472  0.3748089436308742  0.4377102205255729
 0.7513222750214860  0.7508583271524172  0.6252992667646339
 0.7489256854681862  0.7517477501989256  0.8747710714887360
