Cu32 O32
1.0
8.490834 0.000000 -0.371098
0.000000 8.121724 0.000000
0.000000 0.000000 10.321442
Cu O
32 32
direct
0.377262 0.128590 0.257760 Cu
0.380845 0.136030 0.750174 Cu
0.384579 0.636249 0.256301 Cu
0.383168 0.628614 0.756048 Cu
0.878787 0.131399 0.253251 Cu
0.877201 0.126069 0.756729 Cu
0.877116 0.634589 0.256661 Cu
0.885454 0.632237 0.751239 Cu
0.383266 0.378725 0.003230 Cu
0.384616 0.375196 0.505339 Cu
0.381885 0.883436 0.007847 Cu
0.384614 0.881357 0.506316 Cu
0.875974 0.374787 0.001806 Cu
0.885673 0.377539 0.500439 Cu
0.880615 0.885771 0.000934 Cu
0.878376 0.884673 0.507730 Cu
0.131923 0.379773 0.255943 Cu
0.128442 0.379816 0.751011 Cu
0.125186 0.876435 0.250165 Cu
0.133134 0.884741 0.755048 Cu
0.628318 0.385859 0.256727 Cu
0.626321 0.380069 0.753068 Cu
0.629773 0.876303 0.251191 Cu
0.631831 0.879679 0.751992 Cu
0.134322 0.133507 0.003167 Cu
0.133073 0.133435 0.503062 Cu
0.135624 0.627505 0.005254 Cu
0.127093 0.634566 0.501799 Cu
0.629495 0.127229 0.005786 Cu
0.631125 0.130172 0.507190 Cu
0.629967 0.626497 0.006209 Cu
0.635614 0.631178 0.508156 Cu
0.251660 0.018516 0.375482 O
0.252628 0.007228 0.878216 O
0.258670 0.512287 0.377592 O
0.258383 0.518174 0.881222 O
0.758351 0.008257 0.382152 O
0.758352 0.011964 0.882161 O
0.754003 0.509902 0.379416 O
0.758014 0.517756 0.878008 O
0.250927 0.495285 0.128719 O
0.259764 0.498315 0.632393 O
0.257532 0.998465 0.127595 O
0.257139 0.001753 0.633063 O
0.754431 0.500160 0.130747 O
0.756602 0.493820 0.628743 O
0.758903 0.003591 0.128763 O
0.749990 0.999221 0.628871 O
0.009343 0.260570 0.383020 O
0.007536 0.268504 0.880489 O
0.010342 0.762837 0.378069 O
0.999720 0.760319 0.877658 O
0.506716 0.266388 0.383662 O
0.505714 0.267819 0.877952 O
0.504934 0.762088 0.377295 O
0.501106 0.760544 0.877875 O
0.000450 0.243541 0.125387 O
0.007906 0.248910 0.625031 O
0.005790 0.742959 0.130957 O
0.003796 0.750744 0.628260 O
0.506855 0.245318 0.127003 O
0.505706 0.246592 0.629905 O
0.509686 0.753179 0.133290 O
0.508756 0.749786 0.630595 O
