 convert from PWmat
           1
   10.8829900000000       2.728383000000000E-017 -6.628346000000000E-018
  0.314357100000000        11.1575200000000       1.162688000000000E-017
 -6.126246000000000E-002  0.246913200000000        10.7125300000000     
 Si 
    64 
 Selective Dynamics
 DIRECT
 0.124520000000000       0.374640000000000       0.126178000000000      T T T
 0.125747000000000       0.376164000000000       0.624831000000000      T T T
 0.123767000000000       0.874255000000000       0.125375000000000      T T T
 0.126966000000000       0.873814000000000       0.626221000000000      T T T
 0.623863000000000       0.375211000000000       0.123122000000000      T T T
 0.624314000000000       0.372938000000000       0.623462000000000      T T T
 0.625534000000000       0.873803000000000       0.123271000000000      T T T
 0.626243000000000       0.874660000000000       0.623597000000000      T T T
 0.999550000000000       0.998888000000000       0.249519000000000      T T T
 0.999273000000000       0.998738000000000       0.751841000000000      T T T
 1.555000000000000E-003  0.500833000000000       0.252903000000000      T T T
 2.326000000000000E-003  0.500831000000000       0.750436000000000      T T T
 0.500859000000000      -2.200000000000000E-004  0.251389000000000      T T T
 0.498803000000000       0.999203000000000       0.751196000000000      T T T
 0.501732000000000       0.499657000000000       0.249889000000000      T T T
 0.498030000000000       0.497986000000000       0.750030000000000      T T T
 0.124916000000000       0.125638000000000       0.374359000000000      T T T
 0.124461000000000       0.124594000000000       0.874810000000000      T T T
 0.126654000000000       0.625005000000000       0.375739000000000      T T T
 0.124027000000000       0.625060000000000       0.876309000000000      T T T
 0.623648000000000       0.125282000000000       0.376087000000000      T T T
 0.627105000000000       0.124868000000000       0.874000000000000      T T T
 0.623107000000000       0.624571000000000       0.376869000000000      T T T
 0.623883000000000       0.625378000000000       0.872982000000000      T T T
 3.240000000000000E-004  0.252244000000000       7.420000000000000E-004 T T T
 1.260000000000000E-004  0.249548000000000       0.497316000000000      T T T
 1.295000000000000E-003  0.748466000000000       0.998262000000000      T T T
 0.997809000000000       0.749988000000000       0.500534000000000      T T T
 0.500869000000000       0.249585000000000      -8.200000000000000E-005 T T T
 0.501446000000000       0.251507000000000       0.499186000000000      T T T
 0.501608000000000       0.748756000000000       0.998715000000000      T T T
 0.500042000000000       0.748182000000000       0.500882000000000      T T T
 0.374302000000000       0.372628000000000       0.376369000000000      T T T
 0.375653000000000       0.374337000000000       0.875651000000000      T T T
 0.376677000000000       0.875035000000000       0.373558000000000      T T T
 0.374747000000000       0.875327000000000       0.876141000000000      T T T
 0.875628000000000       0.376160000000000       0.374063000000000      T T T
 0.874488000000000       0.373042000000000       0.875821000000000      T T T
 0.876101000000000       0.876887000000000       0.375572000000000      T T T
 0.876870000000000       0.874041000000000       0.875584000000000      T T T
 0.251341000000000       1.735000000000000E-003  4.340000000000000E-004 T T T
 0.250426000000000      -2.830000000000000E-004  0.501675000000000      T T T
 0.249696000000000       0.499698000000000       6.270000000000000E-004 T T T
 0.250721000000000       0.500273000000000       0.500747000000000      T T T
 0.750175000000000       0.999442000000000       1.325000000000000E-003 T T T
 0.748472000000000       3.250000000000000E-004  0.498793000000000      T T T
 0.748807000000000       0.499578000000000       1.130000000000000E-003 T T T
 0.751199000000000       0.500915000000000       0.501200000000000      T T T
 0.373975000000000       0.125946000000000       0.123163000000000      T T T
 0.374776000000000       0.124149000000000       0.626543000000000      T T T
 0.374474000000000       0.625864000000000       0.123956000000000      T T T
 0.374245000000000       0.625316000000000       0.624487000000000      T T T
 0.875682000000000       0.126214000000000       0.124216000000000      T T T
 0.874914000000000       0.124757000000000       0.624395000000000      T T T
 0.872843000000000       0.624136000000000       0.124931000000000      T T T
 0.875136000000000       0.626795000000000       0.625742000000000      T T T
 0.251461000000000       0.249361000000000       0.250694000000000      T T T
 0.251668000000000       0.250211000000000       0.751815000000000      T T T
 0.248607000000000       0.749546000000000       0.248933000000000      T T T
 0.249551000000000       0.750354000000000       0.749563000000000      T T T
 0.749225000000000       0.251848000000000       0.251866000000000      T T T
 0.750012000000000       0.249247000000000       0.749589000000000      T T T
 0.751664000000000       0.750476000000000       0.249846000000000      T T T
 0.749588000000000       0.750492000000000       0.747526000000000      T T T
