Created from POSCAR
1.0
10.4517860000000002  0.0000000000000000  0.0000000000000000
 0.0000000000000000 10.5598580000000002  0.0000000000000000
 0.0000000000000000  0.0000000000000000 20.2645830000000018
Si
128
Direct
 0.1248075544897203  0.3734286986563189  0.0628070719858544
 0.4999689789160149  0.7506317440746459  0.5004784000865697
 0.5002839735689333  0.2503953123976012  0.7498660792697380
 0.5004808501213153  0.2488591412743981  0.5001862202839188
-0.0004002460137364  0.7505296247185719  0.7501317682682702
 0.0013881728370805  0.7499563038148082  0.4998467439443021
-0.0007488965428325  0.2492570242873669  0.7500595630721265
 0.0013595926171026  0.2498444879065399  0.5003597452634814
 0.6244736931074187  0.6242976140343038  0.9387602594738182
 0.6255198740321518  0.6249055657138036  0.6877450871046670
 0.6252778349848378  0.1252873374223725  0.9373285440001488
 0.6250581537895977  0.1242749281478088  0.6876214068402203
 0.1247536623591807  0.6238543368784757  0.9375674149147978
 0.1254277116149269  0.6244906759427784  0.6879143321155732
 0.1248576454956956  0.3749007077078856  0.8121407078119648
 0.1248895377651357  0.1260410578731399  0.9375664923300132
 0.4999519006498037  0.5006873636113141  0.8750350710803435
 0.5001312482131198  0.5001229724015581  0.6247467425109465
 0.4996665721335358  1.0001442712604960  0.8750206558700391
 0.5000732615242414  1.0005332782268006  0.6254159287136293
 0.0002045634701174  0.4996210576356326  0.8748215406789214
-0.0000139965731845  0.5003916584918054  0.6253272030419922
-0.0000260817049248  1.0002960912198302  0.8750174680577164
-0.0004069553278989  0.9993294108001753  0.6248649953214030
 0.6254706864332005  0.8751746311419846  0.8121223701135232
 0.6251387831129235  0.8751236676379185  0.5622740762374049
 0.6249988779483246  0.3751201217855196  0.8128883966134300
 0.6239549799695099  0.3751080012190257  0.5627170725231138
 0.1257092612243556  0.8745851712296060  0.8126781088863755
 0.1252937402374615  0.1239934141078204  0.6880529166723186
 0.1253526818048966  0.8747150306500089  0.5625409323168360
 0.4989035513180367  0.7495867033386973  0.7501134575941399
 0.7496618652366165  0.4989641597061047  0.7501720324480610
 0.7503591849654064  0.2506408962316773  0.8753023238543054
 0.7512107755115847  0.2501970408709965  0.6250731619292779
 0.2514676136816602  0.7504627754530293  0.8752071298667551
 0.2504684443223170  0.7500263051983816  0.6253003732069612
 0.2511096480805365  0.2501004378265752  0.8752915474629464
 0.2497243283950632  0.2488884959296721  0.6251725209109492
 0.8743585670085451  0.6251752271744874  0.8129210738404029
 0.8751178206099266  0.6252166594211854  0.5622338118995793
 0.8748012330262156  0.1249536657719232  0.8124985624782554
 0.8754903036755824  0.1244260675502791  0.5624984064200770
 0.3750628938021104  0.6245718977867515  0.8128493660992053
 0.3751252771665831  0.6249279105931105  0.5625606269481718
 0.3750765494102825  0.1246983515422606  0.8130601743816099
 0.3754866987345021  0.3754156554726257  0.9378624037868649
 0.3753563352558104  0.3744685167834616  0.6870424234620833
 0.7506057045121988  0.5003769707133809  0.5001519321469261
 0.7500035835543769  0.9997621646976191  0.7498990656212869
 0.7506959505647948  0.9989524899048610  0.4994149534547904
 0.2504822359909064  0.5000077393592065  0.7501011576525207
 0.2498262858812809  0.4993622865194088  0.5000075294702829
 0.2495816925891063  0.9997293566532692  0.7508062980479819
 0.2492185932088903  1.0004585266499493  0.4997411056571671
 0.8739594395963896  0.8734866513441625  0.9374614015556174
 0.8764570564063342  0.8739899922457451  0.6876489877516950
 0.8743655946754693  0.3759042346264213  0.9380852568130129
 0.8757943827361561  0.3744545703564559  0.6875116443272210
 0.3749272653151803  0.8743579767005855  0.9374465396848735
 0.3755388141560083  0.8754450037588619  0.6870003117741319
 0.3749981393026096  0.1254744386610391  0.5628396102651176
 0.1256058353299568  0.3748420301943060  0.5624792765725682
 0.7500396177137795  0.7487295059228596  0.3748152222023202
 0.7501502311687076  0.7498219198268988  0.1250255871387789
 0.0005225893642013  0.7495542062443519  0.2498606459645514
 0.0006750888001845  0.7492892781102838 -0.0001248330790221
-0.0004692423032411  0.2500069576122767  0.2503207145753943
-0.0011355451674136  0.2492511727729423 -0.0000056101599226
 0.6252656530143972  0.6251468301831981  0.4374171313598016
 0.6252893100055635  0.6250033740816990  0.1879330998319522
 0.6251678309335728  0.1261583062788524  0.4375187590211085
 0.6244827201184933  0.1248496558698622  0.1880107968490018
 0.1249651994669024  0.6248294148396708  0.4373686058566751
 0.1240147385257371  0.6243205451012324  0.1874957223807260
 0.1255266519659634  0.1245915175865102  0.4381879937109349
 0.1257772774961032  0.1252379523486492  0.1874975564459897
 0.5003357674771681  0.2507092943538313  0.2503481005003990
 0.5001285073059676  0.5003846294952138  0.3754831912719147
 0.4997146975984799  0.9995143775143484  0.3754713950370917
 0.5001269500425087  1.0003731682382437  0.1248406872978013
 0.0002746631604513  0.4996745521423673  0.3744237666065022
 0.0004320256853626  0.4996413821453498  0.1247243608326528
 0.0004100177576859  0.9996571378989605  0.3751150367115938
-0.0004507783015488  1.0003652919108783  0.1252933650005491
 0.6251144651707291  0.8748123598930996  0.3130122984705490
 0.6252523505077439  0.8746633291750818  0.0622807219958885
 0.6244211417718089  0.3742679813386286  0.3125564916928953
 0.6246485700908209  0.3741979290125633  0.0631599971923940
 0.1251577436045644  0.8745242869260927  0.3127233942554649
 0.1244865408407573  0.8743665969836552  0.0626820793344573
 0.1254302953022006  0.3737014280097512  0.3122511194060595
 0.5001383288778822  0.5001847648420940  0.1251311115781359
 0.4992381084023565  0.7501546725757589  0.0001460021259754
 0.5000596889589749  0.2494429204087097 -0.0003217087674570
 0.4998526519441949  0.7500915144068842  0.2501215356975697
 0.7493966241583799  0.2499701180565783  0.3752199615537460
 0.7498392309534879  0.5004733997553459  0.2499572238300596
 0.7497581742369664  0.2496855375109530  0.1249605538581961
 0.2499333185146460  0.7496043451081550  0.3750606498503206
 0.2498220908449817  0.7490869884302040  0.1247025857299375
 0.2505565065016227  0.2501377117602581  0.3747691592991723
 0.2500486980579300  0.2506942072457144  0.1244346399803121
 0.8751640736307689  0.6246216695856577  0.3122451226287886
 0.8755349522286010  0.6248675409720782  0.0625288300121117
 0.8741979864116350  0.1255202373508317  0.3125218844335197
 0.8755330112794778  0.1243635749878300  0.0627884979732124
 0.3748965656119927  0.6246961162660739  0.3122958125342438
 0.3749063922484090  0.6247394865035647  0.0624953144747160
 0.3743486875671222  0.1244378712341714  0.3127158898708972
 0.3761073445297831  0.1242804999603401  0.0626731623146681
 0.7502993443380099  0.5002105461568016  0.0001418233564989
 0.3750823005236237  0.3747661787275943  0.1872995089475935
 0.7512596650530089  0.9991787934975518  0.2500287340916844
 0.7502433187231423  1.0005258037735474  0.0003136881003697
 0.2512671454903515  0.4994360514576803  0.2498241715905054
 0.2509287539241277  0.4993363812706269  0.0001471055095797
 0.2494706937261784  0.9999701762734775  0.2502585667639936
 0.2487191225192494  1.0003774759699842  0.0002383795154993
 0.8746308650084123  0.8755108744743493  0.4375987680855308
 0.8743420108301830  0.8748020554511864  0.1870923915069843
 0.8754115964125213  0.3746666575312090  0.4376649614352577
 0.8746618269737444  0.3745377570109608  0.1873093651010005
 0.3746782750932215  0.8751835553572896  0.4371960379745463
 0.3751394994653807  0.8742176927510015  0.1879225944706960
 0.3747046400781687  0.3741631559917812  0.4376049784361286
 0.7508561327042552  0.7503946476978595  0.6253427294715890
 0.7507848149776238  0.7497133537984088  0.8752332640152846
