Ge27 Te27
1.0
  12.6890418799999996    0.0000000000000000    0.0000000000000000
  -6.3445209379999996   10.9890326199999997   -0.0000000000000000
   0.0000000000000000   -0.0000000000000000   10.9372636599999993
Ge Te
27 27
direct
  -0.0009929626193230   -0.0043493292234480    0.2194021609242100 Ge
   0.3321806533898270   -0.0050432023109860    0.2240244564245710 Ge
   0.6617332567500280   -0.0063220831658610    0.2177699705620620 Ge
  -0.0011979570209680    0.3279692123914030    0.2204520478922750 Ge
   0.3304668148318280    0.3300885739524350    0.2227607020669110 Ge
   0.6645539865520080    0.3286687556013630    0.2222795205964600 Ge
  -0.0033919088192540    0.6599439677507281    0.2241803717991230 Ge
   0.3321600104496700    0.6635809220114540    0.2257302915894050 Ge
   0.6600628427858760    0.6590659343723489    0.2224351783452780 Ge
   0.2253517949734520    0.1085394136110910    0.5598769500623020 Ge
   0.5591547398301340    0.1075584595365650    0.5604453542406400 Ge
   0.8898322305247190    0.1070243766948720    0.5636938015854590 Ge
   0.2247422925940000    0.4391233852251910    0.5549284635056910 Ge
   0.5559643755960130    0.4392410225585730    0.5564137656340370 Ge
   0.8891510167091760    0.4421047583240770    0.5557114512669790 Ge
   0.2286106801550560    0.7781288268988910    0.5579346551896640 Ge
   0.5627076292466870    0.7784249400446630    0.5551264937090920 Ge
   0.8946595236809000    0.7793278113370991    0.5592525667941070 Ge
   0.1192787999658570    0.2259816499715160    0.8904138157710720 Ge
   0.4506121460496500    0.2244039281079400    0.8899683208122620 Ge
   0.7816742248075130    0.2237352777337380    0.8911032109507560 Ge
   0.1150119026920480    0.5563397312472860    0.8881714552366690 Ge
   0.4495285329325630    0.5573051976574110    0.8907297210215490 Ge
   0.7819038849845540    0.5567478470788870    0.8934408899621150 Ge
   0.1151048519649030    0.8881833538912000    0.8896832006184050 Ge
   0.4458227562698440    0.8855909175959999    0.8913368349175910 Ge
   0.7801001100575240    0.8864457955597630    0.8933427349392320 Ge
   0.0030351538905320    0.0002397613895220    0.7638742411601280 Te
   0.3346911089225950   -0.0018993277110840    0.7610867048862719 Te
   0.6714195936212920   -0.0010696657019910    0.7605341757820910 Te
   0.0026316702412080    0.3322384155752540    0.7597086175404780 Te
   0.3370793379666940    0.3326191648744750    0.7614217087994040 Te
   0.6714937599753080    0.3316641416931460    0.7576524632601400 Te
   0.0023759467837890    0.6658916992572550    0.7606025198194570 Te
   0.3331420236381690    0.6637519346327500    0.7599269335471240 Te
   0.6719423026140100    0.6668502224392450    0.7607704723553090 Te
   0.2249730925797460    0.1098201074157400    0.0896745907463590 Te
   0.5512776533500720    0.1069435740408060    0.0886690775277990 Te
   0.8838488261385300    0.1038843434131450    0.0928464462984200 Te
   0.2216532857857480    0.4390936726343580    0.0869882465199760 Te
   0.5530944775674280    0.4382506943438240    0.0902523536589670 Te
   0.8838003435805990    0.4364294943467810    0.0920006395217240 Te
   0.2195283198191130    0.7684985985818890    0.0900416271266460 Te
   0.5491131062162360    0.7686029360616899    0.0889851212347750 Te
   0.8816701575412220    0.7667871447313670    0.0902368158245840 Te
   0.1125961174425060    0.2150305121056590    0.4259411427881310 Te
   0.4437621517737530    0.2169341784926450    0.4277858298974830 Te
   0.7763630033426330    0.2149250692097120    0.4249562376073420 Te
   0.1145501184990130    0.5520244940106410    0.4281768849680580 Te
   0.4450980475814890    0.5517836305139100    0.4283759800472250 Te
   0.7756149352853730    0.5523018055015710    0.4259326984561570 Te
   0.1164398818340190    0.8870061478219290    0.4256231217134090 Te
   0.4479551776354240    0.8857985492976490    0.4267942505087030 Te
   0.7788450092984170    0.8855836540386940    0.4227166584574420 Te
