 convert from PWmat
           1
   11.0536400000000       0.000000000000000E+000  0.000000000000000E+000
  3.755653000000000E-002   10.6708300000000       0.000000000000000E+000
 -3.264600000000000E-002 -4.324767000000000E-002   10.7501100000000     
 Si 
    64 
 Selective Dynamics
 DIRECT
 0.125017299000000       0.375184549000000       0.125032093000000      T T T
 0.375017876000000       0.874955056000000       0.375033865000000      T T T
 0.374997888000000       0.875051786000000       0.874906424000000      T T T
 0.874938793000000       0.374902946000000       0.375088926000000      T T T
 0.875016823000000       0.375114340000000       0.874981576000000      T T T
 0.875018493000000       0.875048245000000       0.374973956000000      T T T
 0.874952217000000       0.874978864000000       0.874989847000000      T T T
 0.249755809000000      -2.054380000000000E-004  2.310000000000000E-004 T T T
 0.249883565000000      -1.591650000000000E-004  0.500296139000000      T T T
 0.249875798000000       0.499813461000000       2.193430000000000E-004 T T T
 0.249709681000000       0.499868115000000       0.500194923000000      T T T
 0.749833490000000      -1.348570000000000E-004  2.662400000000000E-004 T T T
 0.749742486000000      -1.994380000000000E-004  0.500194958000000      T T T
 0.749740938000000       0.499864362000000       2.377390000000000E-004 T T T
 0.375000504000000       0.374894058000000       0.874994008000000      T T T
 0.749847769000000       0.499878401000000       0.500300721000000      T T T
 0.375126412000000       0.125247541000000       0.624863074000000      T T T
 0.375035268000000       0.625150146000000       0.124938609000000      T T T
 0.374997540000000       0.624996035000000       0.625011708000000      T T T
 0.875100301000000       0.125180488000000       0.124929631000000      T T T
 0.874984555000000       0.124987286000000       0.624986016000000      T T T
 0.875039959000000       0.625016922000000       0.124983089000000      T T T
 0.875123785000000       0.625237828000000       0.624883433000000      T T T
 0.249768917000000       0.249918301000000       0.250161920000000      T T T
 0.249694657000000       0.249891800000000       0.750102077000000      T T T
 0.249684084000000       0.749916149000000       0.250128601000000      T T T
 0.249723954000000       0.749827684000000       0.750199704000000      T T T
 0.749729470000000       0.249943411000000       0.250048138000000      T T T
 0.749771204000000       0.249873030000000       0.750206144000000      T T T
 0.374971662000000       0.125015020000000       0.125009296000000      T T T
 0.374968802000000       0.375053716000000       0.374982808000000      T T T
 0.499801247000000       0.749660625000000       0.500152702000000      T T T
 0.499827364000000       0.749933209000000       1.554320000000000E-004 T T T
 0.124890126000000       0.375056768000000       0.624873600000000      T T T
 0.124843911000000       0.875022341000000       0.124850745000000      T T T
 0.125023004000000       0.875148766000000       0.625075422000000      T T T
 0.624852088000000       0.375014469000000       0.124826334000000      T T T
 0.624990885000000       0.375140430000000       0.625044051000000      T T T
 0.624984335000000       0.875164464000000       0.125010793000000      T T T
 0.624923500000000       0.875031042000000       0.624892548000000      T T T
 0.999735018000000      -1.237350000000000E-004  0.250181982000000      T T T
 0.999696326000000       0.999854043000000       0.750325406000000      T T T
 -3.590060000000000E-004  0.499775594000000       0.250338727000000      T T T
 -2.943520000000000E-004  0.499899093000000       0.750120049000000      T T T
 0.499718790000000      -1.125790000000000E-004  0.250304759000000      T T T
 0.499712812000000       0.999866293000000       0.750091194000000      T T T
 0.499675906000000       0.499798141000000       0.250156557000000      T T T
 0.499709678000000       0.499828536000000       0.750337637000000      T T T
 0.125183020000000       0.124939782000000       0.374901350000000      T T T
 0.125059506000000       0.125055024000000       0.874995030000000      T T T
 0.125002992000000       0.625067964000000       0.374909128000000      T T T
 0.125095197000000       0.624894499000000       0.874921096000000      T T T
 0.625155550000000       0.125059324000000       0.374863817000000      T T T
 0.625089427000000       0.124914035000000       0.874886138000000      T T T
 0.625100126000000       0.624916758000000       0.374873687000000      T T T
 0.625081966000000       0.625099770000000       0.874950107000000      T T T
 -1.262530000000000E-004  0.249970285000000       2.005890000000000E-004 T T T
 -1.782440000000000E-004  0.249620507000000       0.500137973000000      T T T
 -2.381540000000000E-004  0.749678654000000       5.083900000000000E-005 T T T
 -9.848200000000000E-005  0.749979823000000       0.500151210000000      T T T
 0.499755209000000       0.249607192000000       1.112370000000000E-004 T T T
 0.499939525000000       0.249938515000000       0.500071165000000      T T T
 0.749774413000000       0.749863670000000       0.250156831000000      T T T
 0.749737838000000       0.749904212000000       0.750092403000000      T T T
