Created from POSCAR
1.0
10.4517860000000002  0.0000000000000000  0.0000000000000000
 0.0000000000000000 10.5598580000000002  0.0000000000000000
 0.0000000000000000  0.0000000000000000 20.2645830000000018
Si
128
Direct
 0.1241248168042672  0.3742890571640584  0.0633510231037200
 0.1245665838802583  0.3773049936629446  0.3126341166469842
 0.1233492337047769  0.8734925673711134  0.0625573217227902
 0.1258269617109977  0.8750210088159375  0.3125981015332081
 0.6235993391077620  0.3751060633547433  0.0611444095585180
 0.6232272369727223  0.3736792429565734  0.3121164867651664
 0.6270049008834113  0.8744261277741293  0.0612531969660455
 0.6259409430426814  0.8749339515803910  0.3119640942474491
 0.9996858766861261  0.9999632967954977  0.1246815919891760
 0.9981149454631905  0.9979822317341097  0.3760010552202314
 0.0022154060501653  0.5005853649971336  0.1254271094288443
 0.0013058687200568  0.5024898596846189  0.3750361975127718
 0.4998916376717596  0.0012715289740913  0.1256874975695216
 0.4993217238427305  0.9981012590365297  0.3752916216964542
 0.5020686934197781  0.5016376163366691  0.1244754866907395
 0.4988584630255581  0.4985776092692330  0.3749657547846762
 0.1260573799180059  0.1251996081366460  0.1872039675380248
 0.1242262936251518  0.1239881964115136  0.4367798488915129
 0.1265675321783397  0.6246338313563241  0.1888813068570701
 0.1247949789624762  0.6251413978634541  0.4377332104178662
 0.6232867386981219  0.1254595606855577  0.1880864226637210
 0.6262541275344017  0.1250244827417956  0.4369562713537116
 0.6229084749476320  0.6233202559399302  0.1879125774088192
 0.6250113411504835  0.6263610919112188  0.4368202816541229
 0.0000919283472576  0.2507694334117293  0.0006113378915842
 0.0016513370231129  0.2511745979332838  0.2494813811220546
 0.0017008687837099  0.7489693864737712  0.5000498877565523
 0.9989841983957252  0.7508789857761885  0.2505587816994667
 0.5003058816325479  0.2487122241850720  0.9999918875521864
 0.5013767736578000  0.2495161514283504  0.2497944556605241
 0.5018841348188162  0.7503396105779966  0.4988290089255834
 0.5003127704097615  0.7498504656855048  0.2495206503682800
 0.3742343783155291  0.3723080672790514  0.1878373150365741
 0.3754430696705955  0.3752743671661517  0.4375279178546151
 0.3755596488944349  0.8725270162062551  0.1872041450331683
 0.3742580984008176  0.8746042052129097  0.4384471644456333
 0.8744303159063712  0.3762059935211035  0.1870208039329290
 0.8741905289172658  0.3723338445159312  0.4372241028370663
 0.8754955705831826  0.8765799855618797  0.1875336899758487
 0.8759638007824107  0.8748312815591368  0.4377769131790928
 0.2526349025348073  0.0004640654587031  0.0010720975436767
 0.2513681367289825  0.9999230090994081  0.2511297151052316
 0.2477117004576874  0.5000577613486463  0.0010791146325440
 0.2497465575429361  0.5006170943220215  0.2506558582990369
 0.7521551512309166  0.9994130990700950  0.0006470333285525
 0.7488145102087889  0.0021247537449468  0.2493007122017240
 0.7491131340733784  0.4985446094182270  0.0002132679970018
 0.7509223706950238  0.5002703601762067  0.2503864504699717
 0.3738179526804292  0.1243973242086384  0.0620313946689699
 0.3754093247633596  0.1233189850430316  0.3134073130157263
 0.3744726163781404  0.6252320033625486  0.0621631378357248
 0.3738967518763781  0.6249117437223773  0.3127307268611726
 0.8750153702522721  0.1262201721986498  0.0621720992710948
 0.8746781455698743  0.1245449143405915  0.3125457684956505
 0.8731848867177001  0.6241806244735023  0.0625453726246956
 0.8754995187127785  0.6242562031528973  0.3131645094890761
 0.2506333776120978  0.2508815941368874  0.1252667558896513
 0.2514328482541742  0.2495259249539514  0.3749883435397690
 0.2487195921889985  0.7481437032604439  0.1253942058289514
 0.2492305614766628  0.7495788898015951  0.3743280863928257
 0.7484195127816959  0.2510541093177345  0.1263173967340623
 0.7507573034189454  0.2511483934125490  0.3736986299964895
 0.7519941026116653  0.7516649001406738  0.1254963146887341
 0.7504201142517676  0.7506445866931843  0.3745450433026931
 0.1247582077233788  0.3753796942272162  0.5633658264298357
 0.1239811802192699  0.3770481133366738  0.8124009885583194
 0.1233336195770780  0.8743767676330833  0.5629753861358561
 0.1263691192280650  0.8738487854345660  0.8127569324782101
 0.6240654774723458  0.3750682169895056  0.5620715609647240
 0.6238593540860005  0.3755792987921164  0.8120721627624873
 0.6272074731513212  0.8747417002805432  0.5620018405239977
 0.6256901777640602  0.8751566430409139  0.8117516285731805
 0.9997563904692019  1.0003458565585091  0.6249530775889647
 0.9989817210711338  0.9995839921823025  0.8760000838114427
 0.0011999947945020  0.5007119108771183  0.6249226288079248
 0.0016453632152646  0.5023318651082677  0.8751755999461838
 0.4993758257098754  0.0003401746306231  0.6260204655913232
 0.4999134419081548  0.9987306537693050  0.8748812233563317
 0.5009196825996730  0.5013046900088848  0.6240576761758460
 0.4987288892892065  0.4992224808740739  0.8750872479692314
 0.1248365645357125  0.1260705541813447  0.6875994578221762
 0.1248057188952554  0.1235522065614842  0.9372492001553598
 0.1257859730505790  0.6243514464066918  0.6883889367817707
 0.1254886975307258  0.6257465871270126  0.9380629584022616
 0.6243519571148997  0.1255901156380183  0.6874197789873301
 0.6265588932358795  0.1254557431074819  0.9370302758425658
 0.6228720864899518  0.6242920808660790  0.6877828285390063
 0.6242537433444871  0.6261675198271330  0.9366805579374348
 0.0012913313376848  0.2500481250012348  0.5006405306822459
 0.0021712379430566  0.2500102334477484  0.7495129718815554
 0.0019055498999939  0.7482224638042323  0.9998740810065972
 0.9983706177879094  0.7505038969971439  0.7502455420878518
 0.5003849269108213  0.2495676015889733  0.5001599271391635
 0.5010495981159457  0.2499799666823602  0.7494414302055421
 0.5010842410594305  0.7495268215762980  0.9989271876361584
 0.5007160725599958  0.7493727965794164  0.7496594579038171
 0.3743609842919189  0.3738473195403263  0.6886075333593520
 0.3742165567336976  0.3753612531002355  0.9375425994689359
 0.3747787954743583  0.8737190186454957  0.6868381997573323
 0.3740072826095637  0.8752901870247088  0.9384412067115436
 0.8763462048855547  0.3772110120087876  0.6868791063710070
 0.8745306389263479  0.3725890445481660  0.9378418548482642
 0.8754210888532288  0.8766360009490151  0.6875376112242240
 0.8758984544501625  0.8733599368162652  0.9378041570393767
 0.2521856740661587  0.0002586341976442  0.5008174555125712
 0.2521587783374159  0.9996249067743284  0.7511686312266922
 0.2493716725261136  0.5011571895099428  0.5004818418940221
 0.2498659792537608  0.5009756461131020  0.7509336013863039
 0.7512773095074448  0.9989586310029189  0.5013680332692021
 0.7479673240257467  0.0016230688853848  0.7493704957903015
 0.7489435490432110  0.4979857991026534  0.5001770928119271
 0.7512242952462290  0.5009846327498736  0.7509653317888769
 0.3738850352412711  0.1244406675749464  0.5618671649769442
 0.3747792885901437  0.1245009869965365  0.8131547890666108
 0.3733718437842225  0.6250134168395061  0.5624504278626147
 0.3731283105636805  0.6239265752251103  0.8129698412187111
 0.8751010199279390  0.1254889663574708  0.5624335709131214
 0.8739735300074305  0.1250905782228174  0.8126722485154406
 0.8737493340411756  0.6234410560277561  0.5623464646126551
 0.8755974991326121  0.6249166305479432  0.8126160671115851
 0.2509158836134919  0.2490008704934390  0.6249025311238701
 0.2512043113057032  0.2510924937332515  0.8749581011891797
 0.2491766415857886  0.7479162016012921  0.6248225979434662
 0.2478041229242588  0.7497881397164079  0.8745541123123344
 0.7483828842363698  0.2504530241788612  0.6260344461438846
 0.7500342747373968  0.2507456021529086  0.8745025878930182
 0.7501938040828575  0.7516308022518881  0.6252390802435767
 0.7495178935498391  0.7507631947605463  0.8751314609116086
