Created from POSCAR
1.0
10.4517860000000002  0.0000000000000000  0.0000000000000000
 0.0000000000000000 10.5598580000000002  0.0000000000000000
 0.0000000000000000  0.0000000000000000 20.2645830000000018
Si
128
Direct
 0.1250615174029653  0.3757386773513441  0.0628128684616848
 0.5001463316372463  0.7497646483617919  0.4997645375470164
 0.4999638451879933  0.2495164412189754  0.7498149588478897
 0.5005492860661832  0.2506031218609229  0.4999337662715677
-0.0005035775820985  0.7502285154840436  0.7502046360044302
 0.0001369620444165  0.7491192011174165  0.5001072724808395
 0.0009370872838109  0.2504834335885359  0.7497359493671741
 0.0004977605680498  0.2508031398200116  0.4999869811494370
 0.6244896844622174  0.6244138817508370  0.9376887004383505
 0.6247686516528841  0.6243483633894357  0.6877953915890291
 0.6254355440899735  0.1254258485726533  0.9374635372146202
 0.6255063636019643  0.1236011208480194  0.6879505373720209
 0.1243883577322994  0.6253312218111453  0.9378582394580196
 0.1244740112936578  0.6244151110506377  0.6875940446725757
 0.1247006862223423  0.3744671933799723  0.8121950809064690
 0.1252203887305375  0.1251782658625277  0.9373122269205963
 0.4992106793790196  0.5004307497613067  0.8753130542751164
 0.4997175561904109  0.4997030139939955  0.6245520972321036
 0.5001125899378256  1.0001906832816534  0.8750540950314933
 0.4996347996983477  0.9992108790174016  0.6254863927402887
-0.0001744342400232  0.5001976616825143  0.8749829644326983
-0.0001479924372859  0.4998037029824369  0.6249040005204273
 0.0004651379851256  0.9989678842841143  0.8751998308826090
 0.0007475319695832  0.9999407427019538  0.6254349968043718
 0.6250390296604682  0.8749974349292446  0.8124240583821611
 0.6250240757120692  0.8750196425045252  0.5623423800738752
 0.6249041764748392  0.3745387242505532  0.8130354003611163
 0.6248560901454929  0.3746474425669132  0.5625082099047228
 0.1248135054248690  0.8752042580205942  0.8125844060087970
 0.1246237953668782  0.1249628484411558  0.6877001379588865
 0.1249085974802375  0.8741449476536385  0.5622912927332320
 0.4998748045845945  0.7496222813672815  0.7498394336146792
 0.7495775696172324  0.4993821685916974  0.7496794197679402
 0.7508515905267330  0.2496834523645238  0.8750223319395077
 0.7503011185280799  0.2496599644141591  0.6250027970844024
 0.2500286874143245  0.7496161680886262  0.8751322667391314
 0.2497076232481505  0.7497865047031025  0.6254628774483579
 0.2499467355466050  0.2492144392088329  0.8753944225308158
 0.2512334647341849  0.2495006019956450  0.6254613139909176
 0.8754707436758254  0.6252976938062325  0.8124077805639275
 0.8752706559909755  0.6243866136004602  0.5624993165936968
 0.8744885330039457  0.1246074707425517  0.8125934198887779
 0.8757356263157799  0.1243547785289099  0.5623453705619168
 0.3751048528915441  0.6248313869494478  0.8122969449133324
 0.3748617515325264  0.6250622587330037  0.5627160821832828
 0.3744210431678377  0.1246754998444128  0.8125759218910874
 0.3742590285748805  0.3750414055822260  0.9373865504091085
 0.3755456475408888  0.3746947889157332  0.6879312767329304
 0.7493276549426262  0.5001580339650185  0.5000631225411173
 0.7499002856833431  0.9999415246248624  0.7498614561840935
 0.7496891142344546  1.0008587984463899  0.4999486399653514
 0.2499754696959673  0.5000287305591060  0.7495764472370409
 0.2497536738828216  0.5002701807251314  0.5002846036258189
 0.2499874443259212  0.9992738856981339  0.7506704107706100
 0.2502562760787808  0.9998366173551502  0.5001890535281868
 0.8755745340280321  0.8762688712928323  0.9374178165140300
 0.8739269923420350  0.8748787245773733  0.6874574441728111
 0.8744604427791132  0.3749178513784225  0.9374396084671408
 0.8757408642948638  0.3752474525951744  0.6870354444868400
 0.3747827502395522  0.8741839044491599  0.9380766929511394
 0.3737778601524826  0.8748524551772291  0.6877681613059147
 0.3757420730014649  0.1240734894468500  0.5625477463821102
 0.1251187500212289  0.3753758746700990  0.5624717340572742
 0.7505265384493577  0.7502450699284308  0.3753344507431237
 0.7505186808652026  0.7513428651914461  0.1246275184040587
-0.0006187667614465  0.7500241602727696  0.2503848622079736
 0.0006165234744168  0.7495185141495372  0.0000570710182082
 0.0001362170451828  0.2491190669534218  0.2504789114026155
-0.0005307292010262  0.2492483185828999  0.0001676980523862
 0.6253305319032314  0.6238576472074805  0.4371984904847683
 0.6245771859149263  0.6238897827125082  0.1874922154690696
 0.6246107993305233  0.1242540581446278  0.4371214692607817
 0.6251470234892835  0.1253808287750258  0.1875933724190838
 0.1256615338072578  0.6247284896287294  0.4369910731003148
 0.1247687993939050  0.6238515631448670  0.1877560983944278
 0.1250884209595336  0.1249154537343527  0.4374282759138558
 0.1252661541783072  0.1247881616460855  0.1877994553746899
 0.5006182781852404  0.2488885478523503  0.2495774176828644
 0.4998812243025766  0.5002542803592401  0.3747877814514608
 0.4998761656158219  0.9994931018990496  0.3754503505934521
 0.4990788536501974  0.9998732459408749  0.1251067933229987
 0.0000014177554566  0.5000587337116135  0.3751892399415865
-0.0002379814130789  0.5003522983802661  0.1246076856499588
 0.0000168792324170  0.9999687393509462  0.3745767918937627
-0.0005064969849918  1.0003153080722542  0.1246213496225672
 0.6248071981861044  0.8751653474352712  0.3126053128713613
 0.6241965137733004  0.8746808894703084  0.0627126047696243
 0.6243164063164069  0.3761984802208688  0.3123943937466485
 0.6252743535426807  0.3754813569580782  0.0627923986804774
 0.1238965801206482  0.8758622087466749  0.3127433201323817
 0.1250852481530330  0.8754859602908053  0.0627265389224832
 0.1243363419930961  0.3756848718367009  0.3131370079657957
 0.5000527380059934  0.4996056757244712  0.1255776213169732
 0.4998905501038997  0.7509499652220779  0.0000514346045358
 0.4994366358072271  0.2494904607648735  0.0000973375330687
 0.5000161606623723  0.7504127826755345  0.2502652054552842
 0.7501934975383076  0.2490717329933014  0.3753312154141072
 0.7500008922826982  0.5008951649285110  0.2498360148280946
 0.7497383177278647  0.2506092810983814  0.1250560080949212
 0.2498630668893243  0.7507602011688206  0.3750998965031911
 0.2505775129000640  0.7497745449521056  0.1253656176026428
 0.2508276902275543  0.2495049387956724  0.3752916603698473
 0.2503926368736242  0.2494252219938175  0.1253185480143949
 0.8755274204095815  0.6249285332409469  0.3125154963449186
 0.8753164221724062  0.6254349676573785  0.0625044788996934
 0.8746803471528788  0.1243621741132951  0.3126808934377826
 0.8739676362551113  0.1252294777520006  0.0621253710310260
 0.3756067972425259  0.6246233910315910  0.3123933775527724
 0.3756346280256294  0.6254286471963222  0.0626587471330414
 0.3754285376564707  0.1261090606365693  0.3124726409196715
 0.3744025412824799  0.1239218345472959  0.0629355751317086
 0.7510718066783798  0.4994820339220193  0.0001198797247230
 0.3747686117404824  0.3751214347189923  0.1874089649307514
 0.7492717779024511  0.9999162007769949  0.2502923436503005
 0.7500126098676916  0.9999000934187207  0.0005118953744966
 0.2500954167444709  0.4998789871642370  0.2502694510385816
 0.2509960763867169  0.4991204507936448  0.0004434537663345
 0.2498466590942342  0.9992556568304967  0.2500311634550008
 0.2501691238893240  1.0004027455677846  0.0004142964609461
 0.8753064753660723  0.8748880814672951  0.4379567577569228
 0.8747350570321331  0.8745152197983284  0.1874692510646059
 0.8752157772977032  0.3754850274995181  0.4378457262120581
 0.8741372013848389  0.3761986400615623  0.1877133455350915
 0.3745463956093232  0.8754474828503918  0.4374549187024188
 0.3766623527338344  0.8747277073574867  0.1872666215325440
 0.3761717066616310  0.3752327782535518  0.4377120527568494
 0.7501737134898447  0.7487008495857378  0.6252095951511616
 0.7508735313074415  0.7491047988003556  0.8752857190270005
