Created from POSCAR
1.0
10.6360399999999995  0.0000000000000000  0.0000000000000000
 0.0000000000000000 21.7313800000000015  0.0000000000000000
 0.0000000000000000  0.0000000000000000 11.1541499999999996
Si
128
Direct
 0.1244333816252366  0.1868404266142016  0.1274222447190305
 0.5014138300727855  0.2506068946388451  0.2475859844640931
 0.1237736497995427  0.1880947657647214  0.6240736970978832
 0.1238485690741307  0.4369903769623398  0.1239747837611429
 0.1263928272543981  0.4368931854211974  0.6262188820565580
 0.6250188031478963  0.1876304001015882  0.1224796604739729
 0.6236679941397691  0.1862385390933141  0.6223693276590108
 0.6266386435535931  0.4374065884158850  0.1247005900101078
 0.6271427965124743  0.4372141234625269  0.6253769985912611
 0.9987769837317853  0.4991070294955904  0.2508283235956941
 0.9993077723240673  0.4999293621668759  0.7515566155909499
 0.0029619757278168  0.2501662161742318  0.2507970772470037
 0.0006468650076288  0.2500573513717938  0.7492358301746320
 0.4989841793664928 -0.0000794777185897  0.2541694077095928
 0.5009204535080339  0.3747049836560114  0.9975583239135462
 0.4986566322842834  0.4995584917273976  0.7500705645891143
 0.5008826239935759  0.1252886413745413  0.4999525637335838
 0.1234961583970530  0.0635181460603411  0.3740814843854363
 0.1233512349596943  0.0613050319379051  0.8750964988618034
 0.1240620266779784  0.3109912079067076  0.3771079157032712
 0.1238835234196514  0.3115545445239302  0.8774956432888116
 0.6235026458510559  0.0633383245214438  0.3739008780816047
 0.6261542752317184  0.0628287648774433  0.8751949953165823
 0.6247101424240058  0.3120844414867714  0.3749807026851583
 0.6256939049996165  0.3123323491994356  0.8749355697117629
 0.0007842639651385  0.1259859047573585  0.0018183040733952
 0.0027805785416937  0.1246242301147020  0.4970901684818908
 0.0023314266560262  0.3745537139308783  0.9991205721765846
 0.9966070242284566  0.3750438417985835  0.5010225575046019
 0.4980532360823889  0.2493231459607128  0.7490003365640363
 0.5005836686556645  0.1251780413899009 -0.0013361682736562
 0.5007028245208343  0.3740952574534060  0.5007873674250415
 0.7512878664530228  0.1256595307571493  0.7489035933167989
 0.3759899061105151  0.1874455934793353  0.8764670065368434
 0.3757470682083747  0.4376799082531335  0.3744490534783602
 0.3751289594797808  0.4378113185528854  0.8752510211299031
 0.8753548200040789  0.1882928975604249  0.3756505779070677
 0.8703028651948608  0.1865649891565999  0.8779026496255141
 0.8738692297303315  0.4382198190387644  0.3743849468652533
 0.8751793058951114  0.4373824673804046  0.8762644436402814
 0.2502880805687615  0.0007575122160043  0.0011770039384891
 0.2478016462520028  0.0001701504123584  0.5028185337602064
 0.2502950363615940  0.2509309035655033  0.0017201438138765
 0.2490809753935800  0.2510505235644996  0.5033730187281010
 0.7485978262349257  0.4992519361557885  0.0026347210673312
 0.7499696464644900  0.0007530093171590  0.4987899603976768
 0.3712111810701406  0.1876240389006519  0.3775284466913240
 0.7500118081070933  0.2495903303636411  0.0021102799981893
 0.3733633572898756  0.0624502331641928  0.1244763412529968
 0.3748845497750197  0.0621114377200912  0.6282047438743721
 0.3738769702088290  0.3123195464782658  0.1242872337863297
 0.3742805529754830  0.3116449176570178  0.6256311996000352
 0.8753990637034360  0.0623778984769567  0.1250701240117641
 0.8740910300895056  0.0625067840246937  0.6247253420283336
 0.8736631835162089  0.3116883980885785  0.1243650005544471
 0.8737335676745721  0.3130038797112605  0.6276899996741103
 0.2489576391990765  0.1254738631450003  0.2517709116957660
 0.2500989148171736  0.1248716383113481  0.7526446672654628
 0.2476052565770714  0.3745798072693330  0.2493390203389964
 0.2493450051378567  0.3761569094779305  0.7490532878540503
 0.7510799527557704  0.1254872080561658  0.2522160619459939
 0.7526434903996941  0.2495681686176331  0.5006675177362543
 0.7509889622100121  0.3755513876910493  0.2523087211845012
 0.7508626067069135  0.3762629433383749  0.7486931740705607
 0.1241628816576666  0.6881028768386297  0.1272579428113373
 0.1233035464443174  0.9375703577608259  0.1249406682420036
 0.1260584651972257  0.9376279173875320  0.6268619237072244
 0.6253463301284048  0.6870553864986917  0.1217758202484712
 0.6233860483477149  0.6857105993534046  0.6261494585667361
 0.6270878330040911  0.9368984134659446  0.1233811124773301
 0.6240959054577813  0.9379201284964774  0.6243759232632771
 0.9988970482673930  0.9988743336170276  0.2508298047250062
 0.9984556335128376  0.9990221935001664  0.7516637389464408
 0.0009609555092687  0.7506048547056490  0.2517970918964972
 0.0002834993345363  0.7502622740406202  0.7504093078841544
 0.4994891340196988  0.5002127854808772  0.2517561096607864
 0.4988480326507949  0.9989938005929661  0.7513698646704262
 0.5028142700072348  0.7506479632375717  0.2479239594381278
 0.4970116011940717  0.7495293281188490  0.7496120651868059
 0.1257810119792421  0.5633267445335473  0.3751551861018682
 0.1249226250930700  0.5612973109586271  0.8724728574850862
 0.1259163267911364  0.8115823212610161  0.3779112119057887
 0.1250255108610725  0.8136178785470598  0.8737256007682367
 0.6247792373034362  0.5627285234312749  0.3746536231131216
 0.6243461731048011  0.5629908986097987  0.8743923242468500
 0.6229945430542253  0.8114484843476254  0.3741223279198952
 0.6260297492573804  0.8126537037867456  0.8732182767345910
 0.0018135301693964  0.6263562083622184  0.0021832186232450
 0.0013213041774947  0.6247717438474419  0.4967957438342411
 0.0015376247588652  0.8745646025070938  0.9987870048315598
 0.9965691688314324  0.8757567466587370  0.5033199037846997
 0.5012624851964939  0.6251677868417929 -0.0001593312219034
 0.5015874725341776  0.6252880854400398  0.4996900687406559
 0.5019222856194087  0.8737559527732864  0.9979112539093061
 0.1240618726522469  0.6887246040725296  0.6269260225072539
 0.5005488863627272  0.8738075757948268  0.4999250463918157
 0.3757134556918442  0.6872131803570704  0.8772250100196026
 0.7526703108912158  0.7498405339557673  0.5015823790421849
 0.3749454544272711  0.9380236074204884  0.3747188603809155
 0.3772851715414484  0.9377551012137618  0.8775050062869183
 0.8766165505244747  0.6869417709486835  0.3722210213474925
 0.8703976855078540  0.6860021809695316  0.8769439333813925
 0.8755967296918158  0.9377759356381116  0.3748333650021716
 0.8766305170281569  0.9362661602101268  0.8757821151360582
 0.2524328139061055  0.5012825141524971  0.0010744901186423
 0.2499605444743477  0.5002128582248173  0.5013894272517404
 0.2490369865962820  0.7498325766619123  0.0021661685455314
 0.2508283611285041  0.7518556155135926  0.5031032838681891
 0.7534617254146710  0.9991328273651467 -0.0000514407593668
 0.7482963816039926  0.5011235850314413  0.4989340398718773
 0.7473514034428913  0.7488396652315580  0.0022349255885321
 0.3747777625790009  0.5620113056098147  0.1229531354444967
 0.3721890659608821  0.6874887097009033  0.3759560847250425
 0.3749169223729050  0.5632353058866456  0.6265845927678486
 0.3734286507420211  0.8132921403670322  0.1232760699581527
 0.3727227574737988  0.8129217274268504  0.6266300492779766
 0.8761211489824995  0.5628767373075666  0.1241586946252073
 0.8755511233861397  0.5618058886327758  0.6242294447596266
 0.8704199795481008  0.8119282084964354  0.1236120788459145
 0.8748728407734447  0.8127252589081589  0.6251359726342612
 0.2491980132950493  0.6238669302324567  0.2519414996986684
 0.2520042326550894  0.6251863720745471  0.7496354727666228
 0.2476930748014467  0.8743572069658481  0.2482572585160473
 0.2488021275616693  0.8755336624586900  0.7479421521752548
 0.7493618365171157  0.6252258142545218  0.2518785987329704
 0.7505686319037178  0.6252233988460182  0.7488984132609366
 0.7503326068963915  0.8760236034995815  0.2517214494856626
 0.7507819146599028  0.8769667818958551  0.7491696385509815
