Created from POSCAR
1.0
11.0018799999999999  0.0000000000000000  0.0000000000000000
 0.0000000000000000 11.1156400000000009  0.0000000000000000
 0.0000000000000000  0.0000000000000000 21.3311400000000013
Si
128
Direct
 0.1243472779681157  0.3741965099434820  0.0630488572802680
 0.1243751602783452  0.3766961842463593  0.3121793349525053
 0.1231427068888048  0.8737837044156819  0.0624362163597929
 0.1266576419767015  0.8739294454740926  0.3129175689536173
 0.6242023134057327  0.3746083132858204  0.0618735930472516
 0.6222289365453358  0.3742721049115514  0.3122054748012379
 0.6266971424705776  0.8743396263645803  0.0609966910152408
 0.6257549347577830  0.8746922572093522  0.3118164249392997
 0.9991891104473479  0.9985674703973992  0.1253854484629262
 0.9982979872262083  0.9996979117846396  0.3750400967073333
 0.0013098121464617  0.5006412561086055  0.1257389685134521
 0.0010158743363715  0.5030664511329496  0.3750299074644504
 0.5004932318295909  0.0010880329932703  0.1255880968834874
 0.4989951520955574  0.9990715777537099  0.3749260672743129
 0.5018390103440687  0.5011761884274454  0.1242416678097014
 0.4989524005907975  0.4988947938914419  0.3753448125690043
 0.1253513360035796  0.1255649435714594  0.1872220124325737
 0.1246525591445232  0.1229449138749787  0.4369840146264923
 0.1258722810205946  0.6244524103995426  0.1886667508621315
 0.1254021161344173  0.6254725810498823  0.4373854620776250
 0.6236712552870743  0.1244649344283978  0.1878379885625021
 0.6252445729897513  0.1246047203853435  0.4373403008901517
 0.6232821518522571  0.6244047136565474  0.1880211947769556
 0.6227617768121185  0.6248099024071022  0.4372199491637814
 0.0012287119314632  0.2512060867263026  0.0001236569628359
 0.0010984759840252  0.2496895716842722  0.2489847435920171
 0.0021139462548165  0.7482272925629685  0.5001812954173943
 0.9989889418009893  0.7515184346641917  0.2501154511996280
 0.5005790695220333  0.2497161393649428  1.0000766862477819
 0.5013887303181089  0.2500241517303449  0.2498633030885181
 0.5008618681249056  0.7502079559827671  0.4991884540259365
 0.5003291697125620  0.7493469072337193  0.2503953042984201
 0.3741801943280378  0.3728561193218836  0.1887406088520318
 0.3752312693886941  0.3746272572631104  0.4373050056209950
 0.3752322948792103  0.8733378569187430  0.1876082023114679
 0.3749030884369871  0.8756003244857296  0.4382889458150565
 0.8746834801919171  0.3767654629401389  0.1872241877778275
 0.8749022641545275  0.3714942326957471  0.4379933980429369
 0.8756396419325589  0.8758122669382244  0.1877163666514925
 0.8756084061568692  0.8742260484398087  0.4382526761954801
 0.2514901469814093  0.0010945890956460  0.0010714837270170
 0.2519401256592280  0.9993111137690897  0.2508778461494317
 0.2486903064202127  0.5006542927146421  0.0008166645499318
 0.2503881135850908  0.5004071104239491  0.2512081312559254
 0.7521009855263499  0.9991400547887219  0.0015642658855555
 0.7484799776528069  0.0013692267943551  0.2489620462998222
 0.7495036045593153  0.4985575533234279  0.0002177558426075
 0.7502126500083535  0.4998569622065753  0.2502510578784996
 0.3741377389278552  0.1248884101148375  0.0620711784711235
 0.3765115544116663  0.1243625216604834  0.3135387559102696
 0.3745552863667191  0.6252872871680603  0.0620141670292183
 0.3726915880095403  0.6237499983117227  0.3120652906882893
 0.8763174241460422  0.1262013585063042  0.0617523141227446
 0.8751764997054023  0.1258793404524721  0.3130260403110019
 0.8731561938181568  0.6227260488643510  0.0618384675975344
 0.8746692601308087  0.6261446425383861  0.3125255272444597
 0.2509501034623018  0.2493836594477343  0.1253370873333856
 0.2521461106527944  0.2497579633379337  0.3749304060227638
 0.2482855737881322  0.7475108341030925  0.1247489389366717
 0.2480644633019649  0.7496424875095968  0.3738127146894653
 0.7482794663340436  0.2509242174445239  0.1259475009826460
 0.7503290318195389  0.2498244733846891  0.3742525149053087
 0.7515559873562020  0.7524237519873068  0.1252147643903201
 0.7487335898741473  0.7498769661405503  0.3743987253386266
 0.1239893739706206  0.3753586356944518  0.5629061683244596
 0.1237017359209908  0.3773949503110939  0.8126850827099896
 0.1230831771895949  0.8737864019770172  0.5627323717876382
 0.1256085861386967  0.8733856333655736  0.8130019173633748
 0.6244100306610194  0.3751460980096667  0.5613995089390651
 0.6224603717105998  0.3746462037463637  0.8121190636233232
 0.6269849908052759  0.8744632637284883  0.5610983080772866
 0.6267018525114100  0.8745724511684576  0.8116541538247547
 0.9997036400305140  0.9992619265528579  0.6257235462171674
 0.9990862005962901  0.9987912240207792  0.8763241458425953
 0.0024654773714438  0.5007671211906851  0.6253218791425648
 0.0014556456725711  0.5023529508958798  0.8749620622325863
 0.4997467429747813  0.0005063060409092  0.6260339361467522
 0.5001656136168396  0.9994286317787514  0.8751756725133638
 0.5015448396395751  0.5010689656881017  0.6237994469505330
 0.4997566974062873  0.4996897589095933  0.8750483441792487
 0.1250960607802380  0.1258450019456334  0.6878026876159142
 0.1253511554027890  0.1236944733244594  0.9371583399316330
 0.1259518153552975  0.6252999088249050  0.6886924068255231
 0.1247245512898022  0.6251811249719925  0.9376123358014007
 0.6238498345545928  0.1250919097913395  0.6877098736444021
 0.6258850920806552  0.1252502075206943  0.9374613909348185
 0.6240480045902861  0.6242467845929461  0.6878168859739053
 0.6236036861890695  0.6250282029390678  0.9364159462345609
-0.0000690617045881  0.2501077614647608  0.5007805153694054
 0.0008032209572784  0.2499407425743216  0.7492425124558147
 0.0004863352831856  0.7487724050327457  1.0000992978443679
 0.9989256425534687  0.7521333431560819  0.7508248352435857
 0.5010897776273576  0.2494909435915489  0.4998265925797920
 0.5017251490615099  0.2498155977923528  0.7495870106649938
 0.5016689542795901  0.7497104144192536  0.9987458576062739
 0.5001226007821248  0.7494441847928258  0.7494909671865538
 0.3738987943546177  0.3726878967575347  0.6883232381998237
 0.3742906930646886  0.3743163834151741  0.9377954060459081
 0.3762331353061459  0.8735377076544049  0.6869283300028182
 0.3742750794391094  0.8753159225202329  0.9384632945776534
 0.8758163453983792  0.3768473090352545  0.6871093633142618
 0.8756963876836488  0.3727152304473710  0.9381340346545599
 0.8759858400659098  0.8762984390009970  0.6875129465481723
 0.8759060693723982  0.8737090546750195  0.9383751818103537
 0.2513135369247873  0.0009585728182041  0.5013045855819761
 0.2517297395652097  0.9999923013274022  0.7508587625830516
 0.2495349163387642  0.5001933890794228  0.5001116206158591
 0.2502984935419303  0.5006692435574327  0.7506158247306808
 0.7506697021328481  0.9979072233927537  0.5010014624628484
 0.7476205452864749  0.0011854219393669  0.7488647412096845
 0.7483837717457662  0.4975481611024918  0.5001119276929755
 0.7514164829231055  0.4997732218592817  0.7507587187672897
 0.3742503494595459  0.1252212976146929  0.5616200061907839
 0.3755107129061038  0.1240042549743964  0.8131835416858768
 0.3748106235903662  0.6253765293694914  0.5620689657218979
 0.3738124753494532  0.6232140093318711  0.8128328340081450
 0.8747910531580949  0.1260289377641778  0.5620903979013949
 0.8747095238010076  0.1250006448982530  0.8130419987584079
 0.8727835754002568  0.6230755567252463  0.5620393882196101
 0.8755835801197812  0.6261234555162729  0.8129508528153516
 0.2512406006208187  0.2497369078688623  0.6252600120739932
 0.2513015387524196  0.2493710695067054  0.8754639498732315
 0.2477934126829353  0.7482188550170745  0.6247104766630547
 0.2488524969948536  0.7496540123141526  0.8742476356220341
 0.7469762386834375  0.2524252488530253  0.6261261303070218
 0.7507465657284238  0.2504102704322277  0.8743263554418305
 0.7516094878225242  0.7515919838571811  0.6253737393244426
 0.7492018239227388  0.7497723300701493  0.8745807713230181
