Created from POSCAR
1.0
 8.9976734714928330  0.0000000000000000 -0.0000000000000000
-0.1461642692367629 10.2347479339573955  0.0000000000000000
 0.8556912879558519 -0.9097006498108707 17.4971824543645695
Si
128
Direct
 0.1239517336140677  0.3753766180088066  0.0627359527098774
 0.5001035715946534  0.7510362141326861  0.9990833599396428
 0.5023150521483655  0.2509720807532380  0.7491123002678538
 0.5013683965514658  0.2490805851711554  0.4997966682945584
 0.9988777278931893  0.7507033162347374  0.7502632111538314
 0.0003224532354309  0.7481602417014986  1.0000683803732617
 0.0016459188806373  0.2497226436074673  0.7487046686225052
-0.0000601661447301  0.2512036871736283  0.5000070853708917
 0.6241304240246975  0.6259357362762725  0.9365858491678217
 0.6246435068398026  0.6240966720597823  0.6881400954744739
 0.6264771460571532  0.1258376784886452  0.9370337733899603
 0.6236672824723518  0.1255595554610048  0.6881604780912843
 0.1242074529224036  0.6253866258404877  0.9373208377892829
 0.1254957997954825  0.6254425508362605  0.6884187148245914
 0.1251547641608567  0.3761542685827007  0.8126585851757672
 0.1241897548627768  0.1237320506337976  0.9373512247439688
 0.4980175657500022  0.4995801960971233  0.8747875940053736
 0.5023706230296998  0.5016047907416382  0.6245235962421244
 0.5004430382801882  0.9986438820430319  0.8755040584503919
 0.5000070787463189 -0.0001574912214131  0.6256922879130703
 0.0009011254593570  0.5023177924918358  0.8753298087292614
 0.0027095421519105  0.5010000651366587  0.6258045964892226
 0.9999589057980179  0.9994748270540966  0.8755743744785975
 0.9986267191008971  0.9990522572960127  0.6250199562479362
 0.6257115363305233  0.8745431009516820  0.8115666889187150
 0.6272179083864782  0.8751151470329988  0.5619198674220949
 0.6233202187166077  0.3755569450200394  0.8129060495895658
 0.6246378097646713  0.3746366687734737  0.5620544422428813
 0.1252587291431277  0.8739696327219604  0.8127255864592036
 0.1256809666817744  0.1265144299319376  0.6870064088717546
 0.1239947861142311  0.8737541786364310  0.5622140698707002
 0.4995858878724570  0.7498908500280366  0.7502248514980465
 0.7512412809224878  0.5000219740438547  0.7503565325331589
 0.7494152225007679  0.2506366173660705  0.8746786628911063
 0.7478386926874037  0.2505835117667163  0.6257834814280936
 0.2478268442250524  0.7495874135570586  0.8739469390724285
 0.2482770770147019  0.7476729831572532  0.6247682326431937
 0.2526366536475674  0.2497424630720515  0.8750916113469674
 0.2517012079245017  0.2497345574078400  0.6259724372117216
 0.8753307309522947  0.6244567152479679  0.8120842870429366
 0.8738153843591627  0.6233274405626928  0.5622365297649585
 0.8753881645865955  0.1254693852813461  0.8126299193906446
 0.8748684592054859  0.1260834680634582  0.5622293366820105
 0.3730530611334177  0.6233581873640285  0.8121224126262960
 0.3733696065885333  0.6269485967953728  0.5619595256016163
 0.3753452583692479  0.1235527470997023  0.8129175981877413
 0.3763168545976563  0.3752562027151043  0.9375913329558950
 0.3758299135401518  0.3734076476041275  0.6884989375181371
 0.7499206977813119  0.4985178252823049  0.4997937039437020
 0.7471062053731035  0.0015851919089795  0.7497199198131571
 0.7505574519773278  0.9990976220458382  0.5005994339427446
 0.2500632318463755  0.5006778757332045  0.7509956802092757
 0.2480031761081583  0.5013555823158908  0.5009091105975693
 0.2512775330742238  0.9994822010918563  0.7505683308250188
 0.2514351329145867  0.0008351035182085  0.5007630056365089
 0.8746666323212191  0.8731450551115481  0.9379796960351946
 0.8756370301266708  0.8760706524693130  0.6872467821139561
 0.8750126867814726  0.3724050501899162  0.9381078751436389
 0.8762698398968216  0.3774335203068928  0.6877403265464781
 0.3737050536393812  0.8760410455931913  0.9382737969471003
 0.3759279707048933  0.8734259887940788  0.6868438144023699
 0.3741287051329193  0.1252292145288353  0.5619312244968824
 0.1237671439278794  0.3754287791700377  0.5638218241206343
 0.7506090638484002  0.7505629101018915  0.3745522392171252
 0.7511057236076684  0.7514863299083872  0.1254122577126840
 0.9978029758609667  0.7514217315320394  0.2505426154193504
 0.0026705109137726  0.7484560416949319  0.5004222233307678
 0.0008435932549495  0.2493557791069293  0.2492477529616157
 0.0002999539513108  0.2517725020083851  0.0004886984030496
 0.6247166453348593  0.6254711406383220  0.4367806632315105
 0.6241455206097954  0.6229104256201493  0.1880167663585680
 0.6262091101562165  0.1250606298375247  0.4375910288210455
 0.6245456331658860  0.1240023356579584  0.1876566103139959
 0.1258468606844949  0.6239717904070957  0.4377541832541087
 0.1259665809610497  0.6258761493724458  0.1888066081865826
 0.1248497965479952  0.1235480305291659  0.4369629104105579
 0.1242514780977699  0.1251224902889698  0.1874858141610628
 0.5023361709449687  0.2505847670714919  0.2500108893544100
 0.4987023417406737  0.4997256881701095  0.3744086747531801
 0.4999264930484481  0.9995300544934324  0.3746158240115777
 0.4999936636703888  0.0002991170397716  0.1259248113872856
 0.0006461508454076  0.5014163670172302  0.3750810989043557
 0.0006559744319500  0.5004733530727210  0.1255189980691058
 0.9988988817057022  0.9992258392998580  0.3756300283123608
 0.9989243378606212  0.9998411379935600  0.1249775783872320
 0.6251059704171943  0.8749160350051590  0.3122835057860213
 0.6264659408098746  0.8735982010107630  0.0615028760217680
 0.6220871323204056  0.3737862062046784  0.3117808056238622
 0.6248293424244037  0.3767935654952118  0.0618150654266234
 0.1263612428296979  0.8740696682570167  0.3126159851218575
 0.1233172633785992  0.8746013566492006  0.0625509728580682
 0.1249597415289448  0.3773302414687832  0.3126629838793366
 0.5013730615574669  0.5003405843780416  0.1247714583833705
 0.5006785327800009  0.7486120783150704  0.4997984281060280
 0.5005819745218801  0.2500173713204297  0.9995925298562135
 0.5001126206514738  0.7501886713319248  0.2503394205522576
 0.7510666455638925  0.2507145238192477  0.3743625283404797
 0.7521046363845205  0.4999031368796653  0.2503319534868776
 0.7487329009166226  0.2522359672094980  0.1257137720849445
 0.2480532986331708  0.7495238778999040  0.3742697656943518
 0.2483305342595678  0.7480453911960379  0.1247944606102505
 0.2526883414056602  0.2498486112076289  0.3744223535785909
 0.2493523360624564  0.2493715841474524  0.1255447585736286
 0.8749695982237887  0.6253753345042340  0.3119597017562564
 0.8739753566085087  0.6231834559847019  0.0619019320863026
 0.8745852376992366  0.1247767502473048  0.3132672976741741
 0.8754710117961936  0.1271148127718141  0.0616210301627956
 0.3732060476641847  0.6241453905834649  0.3127341120554278
 0.3739541148609310  0.6262708111881955  0.0623065674369441
 0.3756453437909696  0.1238848070902012  0.3134226361396087
 0.3736928611014338  0.1241181056454207  0.0624856862404221
 0.7489435865498605  0.4990694920471162  0.0009134116045725
 0.3748838431397525  0.3737184693112858  0.1885068770574936
 0.7482373548130716  0.0014459324904648  0.2494901588470456
 0.7516137288607114  0.9982730349204695  0.0013165613880459
 0.2506884869734943  0.5003047605147976  0.2506250358608659
 0.2485252091059829  0.5005929749412213  0.0009462803815871
 0.2530059696266833  0.9985721844942305  0.2507605781545474
 0.2507999334390083  0.0000646979962413  0.0010850759852022
 0.8748273978195015  0.8742847697101396  0.4377869305741785
 0.8746679862590521  0.8764572629099818  0.1877360743064865
 0.8749718281482924  0.3723109337611899  0.4380666299833767
 0.8757557367533467  0.3760254339941912  0.1868529497251246
 0.3729853203416884  0.8761432700490299  0.4385295137932663
 0.3749554866755905  0.8736894727408621  0.1863479232618610
 0.3751055949916585  0.3762097435337554  0.4382467324337871
 0.7520245392275141  0.7517974867222540  0.6253136130069443
 0.7488351520049247  0.7496166953677892  0.8745753095943498
