 i =     5007, time =     5007.000, E =    -14707.1382835543
1.0
       27.42779922         0.0000000000         0.0000000000
        0.0000000000       25.77529907        0.0000000000
        0.0000000000         0.0000000000        75.19100000
   Mo    B    O
  162  162  200
Cartesian
    50.070069744        59.891093917        41.891657359
    49.817251502        43.031842991        42.878036807
    49.994753365        51.083193403        43.378697425
    31.634054221        59.861641789        42.011980767
    31.669577869        42.836359322        43.004332388
    31.620804170        51.157527666        43.365623360
    40.767160038        59.765893991        42.007632207
    40.863532303        42.993875407        43.160803911
    40.530898683        51.346088269        43.496551350
    49.971824078        58.616767129        44.352039708
    49.886527583        41.011706932        44.937480216
    49.952312327        49.781026748        45.809238773
    31.509484439        58.618180695        44.869597831
    31.499288599        41.000063464        45.449750240
    31.527574108        50.046232141        45.907402123
    40.835249632        58.625918407        44.613381922
    40.711786859        40.998661252        45.371425067
    40.900988960        49.893226410        46.459683442
    52.944462258        59.879172277        41.821001774
    52.977632802        42.946305226        42.734894813
    53.072006773        51.138214610        43.292217282
    34.653030680        59.841687235        41.941529553
    34.547668930        42.932677656        43.045867949
    34.582718552        51.260513603        43.318816731
    43.922494510        59.784520134        42.018520638
    43.557385775        42.848871367        42.923001258
    43.825710664        51.122171489        43.381816921
    52.978126698        58.444067984        44.463166422
    53.010916885        41.063387241        44.915039148
    52.924484996        49.891006714        45.843516326
    34.999223746        58.710698297        44.696089717
    34.631710814        41.004281454        45.160727114
    34.620061669        50.228990880        46.006033823
    43.910399722        58.709511810        44.767804058
    43.718628792        41.115371267        45.061766149
    43.721376446        49.998352565        46.046652553
    55.859882244        59.845791685        41.912574160
    55.954511680        42.953957783        42.932234852
    56.109112640        51.145430040        43.382290948
    37.836744332        59.707795866        41.860726381
    37.612773620        43.012864876        42.994687214
    37.919330072        51.379094181        43.472310682
    46.800798457        59.832598404        41.982159636
    46.639087090        42.971644387        42.796844763
    46.821488179        51.247712033        43.538098265
    55.793507095        58.561677799        44.466910384
    55.769090442        41.061726727        45.074099369
    56.117117170        50.055610498        45.855412420
    37.788521299        58.716749948        44.379073445
    37.607505391        41.073506442        45.117823403
    37.605055777        50.123751185        46.265235819
    47.092833217        58.778958200        44.698224259
    46.698962107        41.009387889        44.884545296
    47.101831216        49.780339835        45.933831263
    49.914560468        37.183659872        41.854319919
    49.915315505        45.665662491        43.259449803
    49.836666744        53.922967746        42.834190719
    31.491323808        37.240801427        41.698912828
    31.581970848        45.673207186        43.617215376
    31.770358303        54.192044834        42.947417912
    40.601119980        37.190645385        42.017183711
    40.758607680        45.663970754        43.539684978
    40.792453783        54.002042280        42.960878011
    49.908599648        35.669835855        44.264940775
    50.116620909        43.992888954        45.820453630
    49.823666480        52.920039927        45.597189701
    32.042515148        35.481173067        44.190552581
    31.949472426        43.993235250        45.891770583
    31.607693205        52.995339275        45.683638621
    40.607784744        35.643330076        44.255854782
    40.538307130        44.031938002        45.941364604
    40.776580972        52.997286476        45.761589114
    52.975731016        37.109589588        41.647874018
    52.960772197        45.571041571        43.397011334
    52.861907741        53.965760756        42.708630305
    34.939090427        37.133134827        41.480360786
    34.781091800        45.763226921        43.416778549
    34.516882715        54.087083311        43.003395688
    43.638157723        37.144948604        41.702472289
    43.812230695        45.670547525        43.545608898
    43.846000159        53.913118201        43.102546831
    52.948413430        35.625072936        44.405562193
    52.873880473        43.918321936        45.828426936
    52.787238537        52.871303128        45.766122176
    34.506295163        35.582240188        44.105383818
    34.605650677        43.826116567        45.764410569
    34.695718666        53.020953770        45.649261721
    43.802892077        35.516512213        44.465275417
    43.673494031        43.836414593        46.096927811
    43.708299542        52.973840585        46.007938447
    56.189719956        37.010202851        41.839028997
    55.948232949        45.488313906        43.376057633
    56.038553563        54.014281830        42.861108078
    37.755126515        37.196637428        41.787073355
    37.717698243        45.830147059        43.448055822
    37.773976898        54.017960508        42.955226586
    46.755873744        37.288147368        41.638901564
    46.925237669        45.677805533        43.469486389
    46.723381599        53.922388695        43.089064024
    55.977435290        35.530074498        44.281872342
    55.714614225        44.053981681        45.813084921
    56.084082873        53.030984978        45.597456519
    37.793176415        35.698802602        44.134239864
    37.906057313        44.094046907        45.689085675
    37.719367272        53.104904822        45.651790812
    47.058473348        35.674894037        44.358366692
    47.108061692        43.824788156        45.905131335
    47.074272359        52.998120991        45.783493708
    49.845199232        40.190754430        42.139985117
    50.010103896        48.321335492        43.259185824
    50.103671737        56.793079824        42.139479866
    31.608638421        40.026167676        42.329808846
    31.442064727        48.440534859        43.538688670
    31.794059658        57.072676340        42.594508989
    40.656515866        40.132789714        42.432738013
    40.735522276        48.517327251        43.601067231
    40.836833507        56.997314545        42.457759265
    49.937041274        38.527316672        44.507920825
    49.928355508        46.998098758        45.838741993
    49.881049306        55.843674491        44.899021573
    31.793897865        38.420163838        44.418911592
    31.836531920        46.983860913        45.943672293
    31.506441582        55.984747229        45.261887904
    40.570441627        38.219528317        44.543961078
    40.789717483        46.938595582        46.025165217
    40.811798063        55.907052199        45.082833390
    53.020062485        40.191285226        42.110697622
    53.057246648        48.305212893        43.475390439
    52.841635276        56.801146800        42.137626335
    34.569973751        40.277018848        42.322258474
    34.743569857        48.617486056        43.487732175
    34.561001298        57.025353107        42.424330419
    43.503105413        40.068779023        42.509470796
    43.845934874        48.518928157        43.592503520
    43.900289036        56.950996136        42.472323535
    52.993437490        38.457069829        44.339431154
    52.984144288        47.046020911        46.165167845
    52.970417371        55.732127681        44.841425861
    34.541265307        38.367458836        44.268193679
    34.802235679        47.182733735        46.233246086
    34.770297039        56.166523851        45.173804017
    43.681390698        38.268503549        44.606739865
    43.859763976        46.800713303        45.957402048
    43.920995789        55.796578337        45.142643121
    56.081136525        40.094421903        42.424699422
    56.148181557        48.488703961        43.518788047
    56.072450759        56.894992814        42.318707529
    37.699971900        40.035151484        42.415653168
    37.804158516        48.666858676        43.595665593
    37.925543517        56.979982752        42.370384999
    46.646120857        40.107263212        42.165812498
    46.814204625        48.485729228        43.595444191
    46.727417926        57.021214595        42.422871437
    55.806461944        38.402820691        44.504523158
    56.098632951        47.064840071        46.185133754
    55.807319167        55.850203008        44.961266726
    37.637828933        38.163970637        44.443901619
    37.781680548        47.038090182        46.141648153
    37.872739169        55.972729081        45.019960932
    46.793463810        38.415633615        44.521619357
    47.098737267        47.087894252        45.866175957
    46.991476571        55.810344992        44.900676410
    51.518827153        59.997236250        43.664416554
    51.325486540        42.586731538        44.546961357
    51.436068265        51.331873133        44.940171100
    33.231948506        58.993252514        43.420363556
    33.144077505        42.580537962        44.758036829
    33.107790304        51.514262868        45.188700390
    42.309173055        59.978144595        43.592441073
    42.131756347        42.731664616        44.836276848
    42.309664113        51.428358938        45.154363229
    51.531395968        58.470102574        42.720021148
    51.411793535        41.471561480        43.097687343
    51.574580689        49.754447168        44.120742864
    33.124122951        58.325004864        41.434774706
    33.042851429        41.773525263        41.805157347
    33.126757066        49.908849435        44.330822027
    42.435712746        58.398936061        43.095328562
    42.114821941        41.667016765        41.846059926
    42.199465584        49.889899704        44.427239709
    54.389217403        59.880500688        43.594947456
    54.394235845        42.648250038        44.592615561
    54.424136453        51.460189716        45.107539569
    36.271452893        60.010259222        43.458983992
    36.243417170        42.730052356        44.869384944
    36.221279821        51.522102766        45.195796604
    45.439591300        59.894040265        43.605569069
    45.345157720        42.640052491        44.652172667
    45.352864209        51.403079384        45.385157660
    54.388553197        58.259180381        42.776157879
    54.456307850        41.320613651        43.267159130
    54.499895636        49.861333185        44.305979601
    36.217941761        58.391215380        42.749745770
    36.190306265        41.418674815        43.450156302
    36.227564228        50.034514872        44.290890211
    45.320008737        58.266140348        41.309515172
    45.116333198        41.401771633        43.240219063
    45.354249390        49.958772721        44.475403133
    57.524926585        59.926245723        43.770377224
    57.338228028        42.642768922        44.747707579
    57.483444955        51.689584774        46.667321507
    39.261113472        59.914982612        43.451396720
    39.273106074        42.635085141        44.653759380
    39.320202228        51.424129594        45.464953169
    48.525087670        60.028754795        43.423392220
    48.359070321        42.619493340        44.476033277
    48.413540861        51.294921726        44.977854836
    57.504154547        58.529438279        42.803946654
    57.477569290        41.385759735        43.423764062
    57.577364769        51.434734177        44.920806951
    39.365328474        58.188047930        41.378212202
    39.253506331        41.435634767        43.308436389
    39.396795926        49.893385365        44.553223057
    48.469339812        58.396120284        42.680500912
    48.295266840        41.461220877        43.107905892
    48.425019697        49.703422550        44.171253717
    51.405764592        37.124253205        43.502560424
    51.556136209        45.471620772        45.178592542
    51.364657642        54.211988034        44.509288975
    33.169867986        37.079203599        43.232816292
    33.427591131        45.585679642        45.228564083
    33.195056708        54.463165631        44.829169279
    42.175253301        36.977585812        43.658745260
    42.286096167        45.484087401        45.270488516
    42.330376543        54.313021093        44.634048936
    51.466894219        35.646032315        42.630912567
    51.440990199        44.165434821        43.962730044
    51.459854775        52.663548685        43.699500237
    33.204562796        35.714127586        42.104813441
    33.106365385        44.265956953        43.930453623
    33.163135098        52.805274275        44.008165684
    42.243541589        35.593401113        42.504895158
    42.373209292        44.193067479        44.179238377
    42.248767242        52.739881242        43.915676467
    54.447962702        37.054471873        43.411757267
    54.372742832        45.566278592        45.162452913
    54.400168280        54.242081659        44.405110874
    36.088086719        37.002416885        43.478064293
    36.189264541        45.556519879        45.165600794
    36.151044331        54.456807423        44.613001565
    45.323710122        36.956677527        43.646167930
    45.450482569        45.461016190        45.187309532
    45.339506295        54.188093662        44.899699971
    54.455632290        35.613534492        42.652805807
    54.327616587        44.216465117        44.043899380
    54.469637379        52.676123177        43.851208780
    36.250195474        35.657834738        42.447316476
    36.150814414        44.281344384        44.045781296
    36.260008119        52.735521328        43.901018527
    45.317553447        35.620678961        42.544636795
    45.353153734        44.218571273        44.120785442
    45.223375331        52.673682079        44.225304161
    57.633186428        36.865502528        43.948577354
    57.496450896        45.481388001        45.309262230
    57.522525226        54.363744832        44.606495756
    39.172413633        38.439618819        43.036114912
    39.247556865        45.647933310        45.071235337
    39.353435219        54.704374467        46.327285116
    48.427421055        37.169041670        43.493968328
    48.414222097        45.481280139        45.116642593
    48.415499416        54.254412041        44.424219560
    57.549786042        35.580940161        42.722198267
    57.617932406        44.155659077        44.195886095
    57.611182487        52.809452526        43.872948742
    39.221879923        35.541402894        42.150788393
    39.175306050        44.194884110        43.947921664
    39.231087971        54.260389892        44.550319286
    48.387159975        35.657215948        42.417049703
    48.384611015        44.171793029        43.992119725
    48.406024550        52.657854683        43.870978833
    51.513689494        39.907101718        43.632335989
    51.459054322        48.412229480        45.117210290
    51.452786946        57.040714991        43.875165600
    33.053535489        41.237885986        43.577507800
    33.271783814        48.560665250        45.395977968
    33.189924726        57.383666507        44.123402525
    42.123720594        39.837697905        44.181179901
    42.374117607        48.396407761        45.328118291
    42.440404763        57.047879329        44.227867314
    51.401518217        38.605164980        42.421551541
    51.558037994        46.967258611        44.182210272
    51.382903428        55.448069066        43.286514764
    33.176737121        38.594946432        42.329073678
    33.195136185        47.046279213        44.278023355
    33.209118566        55.800932574        43.612693668
    42.168199664        38.484742225        42.963503610
    42.231966245        46.962521178        44.385414622
    42.392689819        55.545105537        43.236350207
    54.360736037        39.512109406        45.605046630
    54.534042618        48.377628340        45.237604660
    54.399555167        57.300243413        45.621379276
    36.084782722        39.834808326        43.902244753
    36.193034050        48.609714282        45.245577966
    36.307203620        57.157666278        43.870044971
    45.098677817        39.838180447        43.944927062
    45.307053888        48.462209536        45.367005544
    45.394291907        57.203399959        44.220444673
    54.488734710        38.564126154        42.568352343
    54.630840657        46.976648321        44.189513695
    54.443001029        55.544577579        43.060798384
    36.135001210        38.594055147        42.675769156
    36.202287513        47.165822037        44.340149291
    36.163516637        55.559791862        43.220253155
    45.159253940        38.495959921        42.767543075
    45.360607598        47.032109493        44.387730826
    45.308930128        55.531395652        43.483627725
    57.574333266        39.827590057        44.184424290
    57.556166958        48.496873123        45.328688826
    57.448894907        57.178239622        44.022261604
    39.142388132        39.850411482        44.133416703
    39.253812887        48.590270655        45.540692483
    39.318056333        57.259136463        44.105625090
    48.277378703        39.853113721        43.656148045
    48.535839854        48.462271983        46.698805990
    48.476504150        57.149258683        43.945738869
    57.532249878        38.410231977        42.978218320
    57.471318944        46.948816969        44.385763756
    57.541588496        55.606337350        43.324161600
    39.243954826        38.845613101        41.306043704
    39.281859964        47.187814624        44.371829630
    39.398286131        55.591633994        43.402869969
    48.332382878        38.608576840        42.440430310
    48.477315957        47.077746666        44.218701843
    48.365814562        55.543101566        43.128010886
    46.110737044        47.330684124        55.297141106
    53.065881321        47.330669931        47.849539435
    39.768240160        39.287006138        62.830448014
    39.198030967        43.683110821        47.133877720
    47.317181447        60.288487587        45.934563593
    41.292399103        40.589746168        46.936733536
    45.222350638        46.510983393        55.522584992
    48.551167677        53.222673593        47.061377119
    39.214641785        40.186315038        62.181274987
    29.059337670        47.012401887        47.852826401
    39.010636981        62.508677278        45.248561214
    49.761702338        39.680695585        46.228542715
    58.488609501        41.342066925        59.710889815
    33.197296273        43.469915000        47.124737796
    40.339068144        41.688961098        63.168182393
    41.151990571        54.096688746        66.165157749
    48.132366147        43.592384303        47.285274030
    59.027002109        41.476781455        58.590511136
    34.912652772        47.354714743        47.924986384
    40.853066806        40.861042951        63.965070214
    41.621016266        53.649195803        65.101321705
    51.404084208        43.566954310        47.163088576
    49.848940356        43.824961304        58.620826163
    50.916460755        44.213022033        59.106070966
    37.078959489        50.634105231        47.880234819
    37.711768646        46.729333903        47.881597292
    63.814176316        40.700915459        46.425360473
    58.380099870        40.470240244        47.080363749
    40.845161624        49.999459574        48.209073384
    43.527848493        53.534083856        47.653876941
    34.970904175        57.724983055        46.421196414
    33.394869068        65.031341679        45.632489109
    46.752288737        39.462722594        46.137699820
    43.937203542        34.721580109        46.108883513
    59.015182654        57.601435127        46.447929273
    52.565933163        52.953914415        47.430286586
    30.304899244        42.580188828        61.958135952
    30.903297439        42.898016907        60.907873546
    41.198013778        40.693047177        61.502303538
    41.673908608        39.793741116        62.157193275
    53.014964565        53.684710936        75.919051736
    28.536491448        55.806700377        66.461007434
    35.665561096        39.316736437        70.027848527
    36.932908048        48.849100810        68.760271658
    40.869615178        60.481850908        72.841344170
    48.428454264        44.789061477        64.676054105
    53.529008643        54.253151754        76.868417330
    56.250077515        56.876236100        65.955881878
    36.691310340        39.636105814        69.411987968
    36.520280224        49.822462962        69.381718357
    40.272264384        61.293260422        72.167408194
    49.078859194        43.819698751        64.291967255
    28.350496836        41.842764444        74.881386529
    33.794209940        37.032561602        76.030280635
    40.931536743        50.198817777        81.502898039
    38.984310027        61.675229762        73.438953266
    48.183078532        39.470159426        73.580871873
    27.586135222        42.608525431        75.463457755
    32.969760423        36.782925303        75.146972279
    41.300551234        49.223508424        80.843268031
    39.535160748        60.977796802        74.312179321
    48.267841391        40.051282598        74.667359033
    53.092580117        51.539145034        76.006142153
    52.861107288        51.169386859        74.857838452
    38.076292653        39.566347190        66.368319523
    39.312563863        39.547735240        66.175762332
    36.488205336        40.952433674        68.053761221
    37.621462225        41.034868975        67.570310342
    39.279285457        56.417514108        69.437329968
    39.875202816        57.490262998        69.354957114
    31.279098750        54.463824160        68.405699382
    32.136307230        53.600010524        68.536667111
    47.086412562        45.314899463        63.585774728
    46.417642630        46.268996813        63.978581406
    55.394115131        56.256838788        72.584171691
    54.860042698        57.071359282        71.818353934
    30.646618857        40.710685527        75.143486619
    29.925745682        41.556151192        75.705001531
    40.540847575        40.212167965        81.138419448
    40.611965834        39.241536436        81.892854877
    53.427038884        44.691849020        76.054458856
    52.971706044        45.690422602        76.606050423
    54.892373050        53.312557080        31.190401749
    49.940248763        47.029614464        41.761018895
    30.626360585        35.387576840        25.152885959
    27.994451386        44.814392123        22.823431600
    29.490407135        50.920088340        29.974363265
    49.185001527        36.236721183        27.901593166
    54.617085355        53.220300619        29.998660702
    56.159694455        44.495845907        41.831560941
    30.437166999        34.671103318        26.142708489
    28.647919042        43.803425713        22.597207131
    30.323037168        51.680263187        29.487846821
    48.664179145        35.361354910        28.562747441
    30.092977904        37.219856241        40.407308178
    36.327796834        37.129677551        40.169817759
    30.221771353        51.161126866        31.723009524
    51.303187397        56.502555139        40.715439990
    53.539039852        37.315919112        39.978469763
    70.443022472        37.483659422        40.046908491
    25.501227758        42.051114969        41.141675514
    30.958216460        52.052706569        31.318701302
    43.774986925        49.797223147        42.057683225
    46.719680214        37.645382143        39.940510694
    53.663234954        45.205373655        34.119534460
    52.995674217        46.020986966        33.469742643
    30.463088051        43.777825410        23.157084237
    30.987782127        42.720055210        22.790471105
    56.187091518        33.971981459        26.240772492
    56.056509824        33.168959671        27.186794350
    44.957673203        56.725807714        29.564440518
    45.994870059        57.389246970        29.755788514
    37.338238124        51.231572403        37.393256492
    38.309252849        51.130068156        36.632905659
    43.631291426        30.212432735        27.591006064
    44.783960718        30.591694159        27.900747297
    53.283173076        52.114000829        31.647139640
    52.977417077        52.016254736        30.456780935
    34.597109674        49.831421223        42.011478355
    39.144125285        52.467590989        42.333748664
    38.614690938        38.261606028        30.307976163
    39.276878422        38.171115105        31.357506239
    50.201554077        44.532311933        13.266361049
    53.951630775        53.381685560        16.615504484
    29.088290224        39.097488966        11.760745933
    43.334973392        43.748109304        15.964852606
    40.643206207        45.800385536        13.726811679
    41.891149270        42.731531207        14.725564085
    49.893493227        43.903008306        14.295303589
    54.673321433        54.061389339        15.887782043
    30.293023020        39.079737076        11.514195068
    42.494514815        44.047541157        16.806344391
    41.821396324        45.885471983        13.442656555
    41.017540020        42.964613458        15.575020661
    29.962833336        39.058942330        23.514148703
    33.645271759        31.609024455        21.269108070
    40.979541213        41.904791033        26.550513725
    45.098030642        55.113144788        16.795524083
    47.361368154        36.721151340        27.142658737
    57.732493688        37.900235579        23.233632518
    33.041034798        32.609068372        20.843042856
    41.414178654        42.706597949        25.713115037
    44.772620968        55.288676742        15.639096636
    46.931766186        35.771078962        27.816591874
    48.247523511        44.851598993        12.823219504
    47.940041712        44.201920716        13.813862357
    42.229644364        41.880502111        17.034518900
    43.174738037        41.761021733        16.249603811
    30.690890718        39.226520847         9.734887486
    59.330464612        39.318198257         9.524376874
    46.194350317        53.490887781        16.120781978
    45.784907274        53.853033136        14.986579873
    38.619033821        51.746712137        13.209690682
    37.550440475        51.176023239        12.967658686
    46.762135444        41.383687641        14.350043785
    46.692921809        40.523734345        13.460768932
    52.486909722        52.818688958        15.829655533
    51.792854560        52.075448516        16.541320661
    30.974699546        41.274590444        24.280366687
    31.395053728        40.147566870        23.953097804
    40.140845336        43.463993919        24.658907136
    40.634980275        44.282851619        23.876191874
    38.445426360        50.607690284        69.046067427
    38.706927530        49.589758230        68.409105565
    55.261183170        55.154121167        64.757774107
    55.554688265        56.226035542        64.227630138
    25.669697560        56.969486032        72.771699086
    26.190236093        56.225331597        73.579168781
    54.370273349        54.501564665        72.580657646
    54.890227154        53.677620399        73.329597767
    37.187068893        36.977307640        63.993472102
    36.620095573        38.095926458        64.024667059
    35.365612638        38.290612513        65.317512127
    35.038227378        39.491976027        65.516603512
    55.150084841        36.460081620        77.407814762
    54.581303405        37.346421479        76.772919318
    51.935573619        44.792504560        74.753348118
    51.498236778        45.756502548        75.335510175
    39.036336630        44.466751429        84.555876718
    38.618488832        44.309260890        85.719394702
    51.273298143        52.481249782        76.126789148
    51.032038215        52.225224051        74.984627930
    40.250703247        48.857985270        79.324048053
    40.553464644        47.853098896        78.666830758
    31.619330996        41.945429632        63.436623660
    31.201139741        41.266617138        64.367402850
    61.547032395        52.931853705        70.105395956
    60.747243641        53.876183826        69.916863738