Created from POSCAR
1.0
 9.9016920000000006  0.0000000000000000  0.0000000000000000
 0.0000000000000000 10.0040760000000013  0.0000000000000000
 0.0000000000000000  0.0000000000000000 19.1980260000000023
Si
128
Direct
 0.1244268854013660  0.3744710191455503  0.0623297086990207
 0.4994369019610236  0.7507745683775872  0.4998152342279698
 0.5002948041265820  0.2499186035187178  0.7500847637023791
 0.4996583486788422  0.2500549055479233  0.5002900105442626
-0.0001869357410499  0.7493083862831704  0.7501272442869392
-0.0009832030058963  0.7503630668751602  0.4996080947947351
 0.0003593499788544  0.2504060744864175  0.7502128340823626
 0.0001331659389068  0.2498770488733390  0.5001762888288085
 0.6243618348819873  0.6252224044146192  0.9378007325859388
 0.6247379522106019  0.6243649619206589  0.6879678457586305
 0.6231767223015794  0.1248452065120200  0.9374493891428503
 0.6250544761660198  0.1253815210136406  0.6878292954459780
 0.1254004439486328  0.6251085156451149  0.9373817878627481
 0.1255676230579424  0.6255811454598784  0.6875388103772964
 0.1245727557405614  0.3745963761666600  0.8129194593938204
 0.1237504505919091  0.1247475766249301  0.9379396869127160
 0.4995284994615418  0.5001573525350949  0.8751945107366620
 0.4998250105758119  0.5004243553387291  0.6262296142160856
 0.4994204939472420  1.0009045883477128  0.8741548577009912
 0.4999719808362852  1.0001552103908418  0.6251192140904817
 0.0005895183730872  0.4993975746697817  0.8751352009609255
-0.0000724625273713  0.5001668759627926  0.6250531626981620
-0.0008502466364369  1.0010275902212225  0.8749124034364920
 0.0006204130384350  1.0003346166877176  0.6248343475329591
 0.6252935749183773  0.8743575863429786  0.8128251295175739
 0.6256257013432396  0.8751880609588845  0.5626187876675424
 0.6253942786241868  0.3752929083716545  0.8126218449729739
 0.6247456189127512  0.3744559126884794  0.5627428610264532
 0.1251535029944693  0.8755267158240273  0.8121960130604262
 0.1253748879988122  0.1254579533561602  0.6874464885281580
 0.1248487546197006  0.8753205387755475  0.5626567976605460
 0.5005381039456087  0.7491995600266318  0.7503989829724939
 0.7501896438139048  0.5010648365457132  0.7500450859850876
 0.7498007550109106  0.2510727731243850  0.8749838230842442
 0.7503214199860261  0.2494627644799719  0.6250012293034810
 0.2500803231610975  0.7486621300330657  0.8753693062915666
 0.2501760255740251  0.7492102962206052  0.6249756180498184
 0.2500323882306033  0.2494164759389469  0.8748553249243243
 0.2506256257443586  0.2492584462401275  0.6248984999301194
 0.8750879834576736  0.6255532622326149  0.8129885139505961
 0.8749941421831527  0.6247065140692887  0.5627008151464790
 0.8743350054162220  0.1242787225144733  0.8125105292499046
 0.8747912727667083  0.1238639657656757  0.5625822127709382
 0.3740181776244320  0.6255503795852684  0.8122738235053857
 0.3752765823834215  0.6247125239971378  0.5631444767410977
 0.3754999108000221  0.1249306901755039  0.8127213583391998
 0.3748037076566749  0.3748342919817978  0.9373563745086360
 0.3739619725954743  0.3748082549293888  0.6879483641806773
 0.7511098643823418  0.5008821017055308  0.5007229848534719
 0.7498064497628235  0.9993579847843288  0.7498720704111134
 0.7497374648293081  1.0004852727239530  0.5000570669435357
 0.2495796368409604  0.4992556966221142  0.7502701651196553
 0.2496838138382629  0.4992780961261113  0.4998480188283324
 0.2510055157526456  0.9998309635168922  0.7500925759444429
 0.2498748381866709  0.9991911661723605  0.4999897732095729
 0.8739976580643906  0.8749847825637913  0.9372557572298909
 0.8748272120754070  0.8746696655195769  0.6870776324426888
 0.8744281702593810  0.3739011814336036  0.9380239516347758
 0.8747617345259928  0.3753022058930376  0.6876664506787991
 0.3758718038146971  0.8744921088557592  0.9373212651778372
 0.3754911520484189  0.8762660218286044  0.6880788585716771
 0.3758073941491277  0.1248246662816050  0.5624725726699291
 0.1257055729512534  0.3765864348327643  0.5628801466286406
 0.7499118071754609  0.7504441113451832  0.3751461371140799
 0.7500839755107098  0.7496714172718509  0.1249919748297349
 0.0002403511148906  0.7489314426759855  0.2498438368279921
-0.0004698194956165  0.7507406645259542  0.0004305768583988
-0.0011977405544572  0.2494661205205720  0.2503930253744100
-0.0005919158350690  0.2498017857010221 -0.0001965259943085
 0.6250774594561415  0.6243568424536715  0.4375430961852897
 0.6248954559970271  0.6245113197885217  0.1879136834293463
 0.6253567204335475  0.1246382761420088  0.4376936153398457
 0.6256725192998182  0.1242882594608211  0.1873567596182116
 0.1254745410711911  0.6237658458573017  0.4373161148434296
 0.1253011687832612  0.6250173632181967  0.1870746416019735
 0.1252551022686344  0.1249293149451540  0.4374503499594102
 0.1240455327547815  0.1239173311383234  0.1871208922624374
 0.4998693530908169  0.2500325283394219  0.2500992694730392
 0.5000869382018754  0.4993768105447133  0.3749152044848147
 0.5000083731983986  0.9992351453310037  0.3748994103844214
 0.5000329563435646  0.9990462124082210  0.1249953185523718
 0.0006528657723393  0.5003853547760092  0.3750609314112070
-0.0001472954151314  0.5000356461560136  0.1249893342957133
-0.0001711054049056  1.0000894188365506  0.3757258694685122
-0.0005741555639891  0.9997537444595910  0.1251510226557443
 0.6250681621567060  0.8754946945472820  0.3123419366053069
 0.6246930529459520  0.8757323543433637  0.0628498216916906
 0.6252819782255328  0.3757777230606084  0.3121453286758106
 0.6251019955727328  0.3735257825255719  0.0626087865216210
 0.1250017844782785  0.8751174543377059  0.3124282929932018
 0.1245184176218327  0.8748163959762988  0.0622752267590196
 0.1243959466853030  0.3765258358222517  0.3125438212746422
 0.5002466215783515  0.4998706815976960  0.1254701440785365
 0.5002442930636990  0.7506350499951627  0.0004150100950480
 0.5007214486639467  0.2492387873516708  0.0002724152426663
 0.4990477977918251  0.7501491665184714  0.2503062414789136
 0.7498389117870253  0.2491114021259472  0.3751009824883120
 0.7493596556859249  0.5002508234826548  0.2501953550069441
 0.7493695240631411  0.2492899739179623  0.1253657633994275
 0.2502538859770285  0.7517055110567484  0.3751236015670679
 0.2498656898972901  0.7507992944411747  0.1250733728530138
 0.2503800538822584  0.2494143874183069  0.3756730031980546
 0.2492696218658612  0.2495844943955619  0.1247292120154010
 0.8751469600274439  0.6253396863023228  0.3124640881674660
 0.8744625973994616  0.6255239292052097  0.0629564459061045
 0.8747994634921287  0.1259607548093642  0.3124803598368639
 0.8749523120432058  0.1254738153326050  0.0627855194221039
 0.3755037265663924  0.6248875334480971  0.3128799347940234
 0.3745245831844501  0.6249746444107264  0.0628506672982006
 0.3744524449563250  0.1244521821668588  0.3125230266579008
 0.3747638635432637  0.1257369882821819  0.0624822307692995
 0.7491647685317399  0.5000230367954464  0.0001650005738005
 0.3748229270121089  0.3746634738550114  0.1880471769141062
 0.7502437648883072  0.9992716061824772  0.2498621833459096
 0.7507604076752886  1.0003313944805694 -0.0002087741568032
 0.2493058209977893  0.4989931854953576  0.2501761036620033
 0.2507552804379819  0.5006422560336258  0.0001170446903835
 0.2488668408654563  0.9996710401867234  0.2499077572586437
 0.2500807238624267  0.9998842164761703  0.0001575489305450
 0.8745978880789820  0.8741285955786713  0.4372306917296639
 0.8754216152122769  0.8753335904201007  0.1874431318370091
 0.8737898175944829  0.3740801627768969  0.4372144704128044
 0.8745454181875214  0.3759385668789210  0.1871539966705671
 0.3745236894188537  0.8761142089670975  0.4374516716374839
 0.3745900092892642  0.8742149791302175  0.1872833282635090
 0.3750138997302393  0.3745619121922392  0.4375572223107195
 0.7498973678780492  0.7491333874986645  0.6250932648638110
 0.7500847808864632  0.7488929960853765  0.8751261597161529
