Created from POSCAR
1.0
11.0018799999999999  0.0000000000000000  0.0000000000000000
 0.0000000000000000 11.1156400000000009  0.0000000000000000
 0.0000000000000000  0.0000000000000000 21.3311400000000013
Si
128
Direct
 0.1241338348719759  0.3739180897051304  0.0632715980023218
 0.5014235305658494  0.7514105994650010  0.9988190554983213
 0.5015882634653585  0.2501146472305789  0.7494230237769902
 0.5007520785528818  0.2487857635948597  0.4996686238168793
 0.9988312864174503  0.7509408721121363  0.7502945007132600
 0.0010813810383376  0.7484087975544376  0.9996314523645788
 0.0014464976141738  0.2497286773323158  0.7488647279815310
 0.0002234732127098  0.2513938575856707  0.5003051073618261
 0.6236892917933962  0.6253665562122653  0.9369332347864390
 0.6234760658924874  0.6238275577516083  0.6879365311228303
 0.6255068028818086  0.1252326422087461  0.9370554488469671
 0.6241338735141051  0.1245838241239258  0.6880535018209712
 0.1252953463322556  0.6241208499327585  0.9374159537057210
 0.1260873986818300  0.6249721200092487  0.6886447949178235
 0.1240344034021142  0.3766437571928300  0.8127076059152424
 0.1246765816744139  0.1238722536301699  0.9370444608367868
 0.4991307393614566  0.4992984997759474  0.8751038576611808
 0.5019154939914486  0.5005112233495578  0.6242588295038272
 0.5011115507074174  0.9994491216969640  0.8748473048315840
 0.4991789694884211  0.0006488301172898  0.6255963555382454
 0.0015480766225670  0.5008312403179872  0.8750114387935561
 0.0012809791231239  0.5005124803009986  0.6255572703443714
 0.9994677842849709  0.9994256836008972  0.8753909311859152
 1.0006846302804526  0.9995252505659261  0.6247284352926674
 0.6258482058460626  0.8744373731568771  0.8115560341010403
 0.6269368648237942  0.8749474196086409  0.5615932217300159
 0.6226698810237027  0.3747601078661518  0.8124075889422949
 0.6234707476268072  0.3762776190013248  0.5623478014565767
 0.1251881434715551  0.8743307797221025  0.8126275987749336
 0.1248977502806712  0.1251231121543916  0.6867977558355836
 0.1231264148725678  0.8733362244184842  0.5622148889214477
 0.5008161755433078  0.7497207702466834  0.7498782966652945
 0.7518807094268736  0.4993444977809804  0.7504239167513184
 0.7506067492556741  0.2498227320863015  0.8745914467702199
 0.7479577633211787  0.2511415641342180  0.6256170206356801
 0.2476648220260789  0.7501155931208562  0.8742436952155707
 0.2484755403828359  0.7483142836781956  0.6242491805216641
 0.2519908095664407  0.2490540263499434  0.8754203877093780
 0.2504087540185946  0.2494694815662901  0.6255432887333143
 0.8750562798293693  0.6254572861376843  0.8128698461453261
 0.8740071440481674  0.6221197721143670  0.5621730206420351
 0.8753543764276720  0.1245760584911858  0.8132208598358153
 0.8755714014204655  0.1262009269416476  0.5620900760939211
 0.3731735243705684  0.6237336671674213  0.8127037272426317
 0.3745184480962770  0.6252176523244678  0.5616877357512819
 0.3752975739194622  0.1238881662551883  0.8132927382075718
 0.3749305320200461  0.3751172004815703  0.9374880258732797
 0.3755293496743036  0.3732084603703745  0.6889196127048466
 0.7489490416932162  0.4978329126606297  0.5003290137814232
 0.7486281248195507  0.0010291595877364  0.7492567904693823
 0.7511211924005607  0.9978035700570020  0.5007425109933006
 0.2507239954442720  0.5003850677827495  0.7511132454876647
 0.2489589773264490  0.5002790503065848  0.5006349658749201
 0.2513461550354615  0.9996103006360846  0.7505114906609761
 0.2519350592853632  0.0015752615905637  0.5012144858321909
 0.8757161357582248  0.8733517375155961  0.9378558144297062
 0.8750636425043739  0.8760409537788502  0.6872939873757785
 0.8743666314090576  0.3725288993978793  0.9376846111698774
 0.8750710714094326  0.3765103147306209  0.6870611617305198
 0.3737958368458366  0.8758664791926263  0.9383511402018933
 0.3752163512631862  0.8725906685476312  0.6863844405005912
 0.3738255213164705  0.1251555191484588  0.5623303826486465
 0.1235243863340997  0.3752833533668556  0.5632132085811119
 0.7499895771399681  0.7504525985579731  0.3747920171455685
 0.7518408246946143  0.7514922751229869  0.1250582566433960
 0.9987918363751268  0.7517191620202627  0.2501415151762682
 0.0021092140953615  0.7485323416880549  0.5001487799156618
 0.0016845104004492  0.2493113407961944  0.2488513520952397
 0.0004964518304906  0.2511959919409436  0.0005575574073143
 0.6237353044083535  0.6259114973698306  0.4367358759259822
 0.6239900349795162  0.6233217580730864  0.1883925619896095
 0.6250985452656153  0.1255803789656616  0.4374592733741980
 0.6239699553813564  0.1239171414342132  0.1876240724208660
 0.1250135441985518  0.6238104563217705  0.4375550385610050
 0.1258462895822805  0.6245174036898742  0.1887455575165375
 0.1252330926291307  0.1243507556848582  0.4368542474745264
 0.1249998098243017  0.1268110419666786  0.1874068843431042
 0.5015531466373929  0.2510416413539338  0.2493466290399629
 0.4989693254065634  0.4999729871246447  0.3748048540129417
 0.4991490806080187  0.9980313248294508  0.3750495894698760
 0.4998250893359317  0.0009273838958962  0.1257748668055404
 0.0002188325357475  0.5013896414331315  0.3746228969610635
 0.0011430636528793  0.5014054551131155  0.1255543050175228
 0.9986041021179219  0.9998518773244780  0.3757912261495288
 0.9997981304283045  0.9992563499622337  0.1253027201332204
 0.6259528135567236  0.8751339797790972  0.3120056041117139
 0.6263199660231038  0.8741188943416806  0.0618907228664325
 0.6234918000479678  0.3731394906011126  0.3120426215491314
 0.6244017179423670  0.3748483290169764  0.0617847540999572
 0.1254949091563692  0.8735322735775406  0.3131044626785964
 0.1227337874032789  0.8742793358109979  0.0625864848712312
 0.1241513505860460  0.3768336192596425  0.3126972230429871
 0.5014911592099122  0.4995123394231124  0.1244292816389334
 0.5021911397895623  0.7502098732761782  0.4988280082897364
 0.5002262958581339  0.2495973091668441  0.9997616262086482
 0.5004111185962399  0.7496510864685380  0.2501270681335357
 0.7513154483883759  0.2503954411826587  0.3744267447597695
 0.7518218636798097  0.5009622764342220  0.2512637037498842
 0.7479815719426479  0.2504209107592901  0.1260861128222790
 0.2484606221946657  0.7484251986785070  0.3742517086279689
 0.2484517288280914  0.7474448268754998  0.1247551767382163
 0.2521584208671094  0.2501369139623946  0.3753919663403411
 0.2510492184090972  0.2490372052424235  0.1254019134174598
 0.8744979215137112  0.6246969915488080  0.3126490811520333
 0.8740274424021816  0.6233266679413633  0.0623819857193132
 0.8751456060385810  0.1244739453601064  0.3131228546169266
 0.8742502201248694  0.1264620875381539  0.0622573015014936
 0.3730499565580166  0.6231256164659315  0.3125979637542138
 0.3742033162345361  0.6259151921104620  0.0622171196792062
 0.3765226361376285  0.1241217050764437  0.3135390953777252
 0.3747760671046672  0.1246858670028943  0.0620530145744200
 0.7496986462597209  0.4977871101513418  0.0004031764521706
 0.3743419107990718  0.3738975934525505  0.1881108121241207
 0.7476616838809665  0.0017371496911568  0.2492479718562546
 0.7515516771747639  0.9985187308730528  0.0007308550911450
 0.2497045307226568  0.5004420501763165  0.2509061313639939
 0.2494249681399459  0.5001241160494079  0.0007517348435853
 0.2515581492633537  0.9985615902564108  0.2507425341841513
 0.2532894439709760  0.0011707195670812  0.0006972383956458
 0.8759896298928143  0.8731005462885267  0.4379537176916673
 0.8757793919752118  0.8766542755840161  0.1878537284233141
 0.8741162678803918  0.3728353067526338  0.4373969187882285
 0.8754573739819300  0.3772512422637739  0.1874902246353763
 0.3741714389586547  0.8765876877067215  0.4379961982305515
 0.3752113844053692  0.8732299075804227  0.1868216219316819
 0.3749667657683537  0.3754036517431036  0.4374583658266366
 0.7521939761989372  0.7513913861748714  0.6248582030339344
 0.7502337075689862  0.7503728218339224  0.8745590583442866
